*SPEF "ieee 1481-1999"
*DESIGN "Sync_FIFO"
*DATE "12:19:55 Monday May 25, 2026"
*VENDOR "The OpenROAD Project"
*PROGRAM "OpenROAD"
*VERSION "26Q2-565-g927ca5dfef"
*DESIGN_FLOW "NAME_SCOPE LOCAL" "PIN_CAP NONE"
*DIVIDER /
*DELIMITER :
*BUS_DELIMITER []
*T_UNIT 1 NS
*C_UNIT 1 PF
*R_UNIT 1 OHM
*L_UNIT 1 HENRY

*NAME_MAP
*1 _0_
*2 _100_
*3 _101_
*4 _102_
*5 _103_
*6 _104_
*7 _105_
*8 _106_
*9 _107_
*10 _108_
*11 _109_
*12 _10_
*13 _110_
*14 _111_
*15 _112_
*16 _113_
*17 _114_
*18 _115_
*19 _116_
*20 _117_
*21 _118_
*22 _119_
*23 _11_
*24 _120_
*25 _121_
*26 _122_
*27 _123_
*28 _124_
*29 _125_
*30 _126_
*31 _127_
*32 _128_
*33 _129_
*34 _12_
*35 _130_
*36 _131_
*37 _132_
*38 _133_
*39 _134_
*40 _135_
*41 _136_
*42 _137_
*43 _138_
*44 _139_
*45 _13_
*46 _140_
*47 _141_
*48 _142_
*49 _143_
*50 _144_
*51 _145_
*52 _146_
*53 _147_
*54 _148_
*55 _149_
*56 _14_
*57 _150_
*58 _151_
*59 _152_
*60 _153_
*61 _154_
*62 _155_
*63 _156_
*64 _157_
*65 _158_
*66 _159_
*67 _15_
*68 _160_
*69 _161_
*70 _162_
*71 _163_
*72 _164_
*73 _165_
*74 _166_
*75 _167_
*76 _168_
*77 _169_
*78 _16_
*79 _170_[0]
*80 _170_[1]
*81 _170_[2]
*82 _170_[3]
*83 _170_[4]
*84 _170_[5]
*85 _170_[6]
*86 _170_[7]
*87 _171_
*88 _172_
*89 _173_
*90 _174_
*91 _175_
*92 _176_
*93 _177_
*94 _178_
*95 _179_
*96 _17_
*97 _18_
*98 _19_
*99 _1_
*100 _20_
*101 _21_
*102 _22_
*103 _23_
*104 _24_
*105 _25_
*106 _26_
*107 _27_
*108 _28_
*109 _29_
*110 _2_
*111 _30_
*112 _31_
*113 _32_
*114 _33_
*115 _34_
*116 _35_
*117 _36_
*118 _37_
*119 _38_
*120 _39_
*121 _3_
*122 _40_
*123 _41_
*124 _42_
*125 _43_
*126 _44_
*127 _45_
*128 _46_
*129 _47_
*130 _48_
*131 _49_
*132 _4_
*133 _50_
*134 _51_
*135 _52_
*136 _53_
*137 _54_
*138 _55_
*139 _56_
*140 _57_
*141 _58_
*142 _59_
*143 _5_
*144 _60_
*145 _61_
*146 _62_
*147 _63_
*148 _64_
*149 _65_
*150 _66_
*151 _67_
*152 _68_
*153 _69_
*154 _6_
*155 _70_
*156 _71_
*157 _72_
*158 _73_
*159 _74_
*160 _75_
*161 _76_
*162 _77_
*163 _78_
*164 _79_
*165 _7_
*166 _80_
*167 _81_
*168 _82_
*169 _83_
*170 _84_
*171 _85_
*172 _86_
*173 _87_
*174 _88_
*175 _89_
*176 _8_
*177 _90_
*178 _91_
*179 _92_
*180 _93_
*181 _94_
*182 _95_
*183 _96_
*184 _97_
*185 _98_
*186 _99_
*187 _9_
*188 clk
*352 clknet_0_clk
*353 clknet_4_0_0_clk
*363 clknet_4_10_0_clk
*364 clknet_4_11_0_clk
*365 clknet_4_12_0_clk
*366 clknet_4_13_0_clk
*367 clknet_4_14_0_clk
*368 clknet_4_15_0_clk
*354 clknet_4_1_0_clk
*355 clknet_4_2_0_clk
*356 clknet_4_3_0_clk
*357 clknet_4_4_0_clk
*358 clknet_4_5_0_clk
*359 clknet_4_6_0_clk
*360 clknet_4_7_0_clk
*361 clknet_4_8_0_clk
*362 clknet_4_9_0_clk
*189 din[0]
*190 din[1]
*191 din[2]
*192 din[3]
*193 din[4]
*194 din[5]
*195 din[6]
*196 din[7]
*197 dout[0]
*198 dout[1]
*199 dout[2]
*200 dout[3]
*201 dout[4]
*202 dout[5]
*203 dout[6]
*204 dout[7]
*205 empty
*206 full
*207 mem\[0\][0]
*208 mem\[0\][1]
*209 mem\[0\][2]
*210 mem\[0\][3]
*211 mem\[0\][4]
*212 mem\[0\][5]
*213 mem\[0\][6]
*214 mem\[0\][7]
*215 mem\[10\][0]
*216 mem\[10\][1]
*217 mem\[10\][2]
*218 mem\[10\][3]
*219 mem\[10\][4]
*220 mem\[10\][5]
*221 mem\[10\][6]
*222 mem\[10\][7]
*223 mem\[11\][0]
*224 mem\[11\][1]
*225 mem\[11\][2]
*226 mem\[11\][3]
*227 mem\[11\][4]
*228 mem\[11\][5]
*229 mem\[11\][6]
*230 mem\[11\][7]
*231 mem\[12\][0]
*232 mem\[12\][1]
*233 mem\[12\][2]
*234 mem\[12\][3]
*235 mem\[12\][4]
*236 mem\[12\][5]
*237 mem\[12\][6]
*238 mem\[12\][7]
*239 mem\[13\][0]
*240 mem\[13\][1]
*241 mem\[13\][2]
*242 mem\[13\][3]
*243 mem\[13\][4]
*244 mem\[13\][5]
*245 mem\[13\][6]
*246 mem\[13\][7]
*247 mem\[14\][0]
*248 mem\[14\][1]
*249 mem\[14\][2]
*250 mem\[14\][3]
*251 mem\[14\][4]
*252 mem\[14\][5]
*253 mem\[14\][6]
*254 mem\[14\][7]
*255 mem\[15\][0]
*256 mem\[15\][1]
*257 mem\[15\][2]
*258 mem\[15\][3]
*259 mem\[15\][4]
*260 mem\[15\][5]
*261 mem\[15\][6]
*262 mem\[15\][7]
*263 mem\[1\][0]
*264 mem\[1\][1]
*265 mem\[1\][2]
*266 mem\[1\][3]
*267 mem\[1\][4]
*268 mem\[1\][5]
*269 mem\[1\][6]
*270 mem\[1\][7]
*271 mem\[2\][0]
*272 mem\[2\][1]
*273 mem\[2\][2]
*274 mem\[2\][3]
*275 mem\[2\][4]
*276 mem\[2\][5]
*277 mem\[2\][6]
*278 mem\[2\][7]
*279 mem\[3\][0]
*280 mem\[3\][1]
*281 mem\[3\][2]
*282 mem\[3\][3]
*283 mem\[3\][4]
*284 mem\[3\][5]
*285 mem\[3\][6]
*286 mem\[3\][7]
*287 mem\[4\][0]
*288 mem\[4\][1]
*289 mem\[4\][2]
*290 mem\[4\][3]
*291 mem\[4\][4]
*292 mem\[4\][5]
*293 mem\[4\][6]
*294 mem\[4\][7]
*295 mem\[5\][0]
*296 mem\[5\][1]
*297 mem\[5\][2]
*298 mem\[5\][3]
*299 mem\[5\][4]
*300 mem\[5\][5]
*301 mem\[5\][6]
*302 mem\[5\][7]
*303 mem\[6\][0]
*304 mem\[6\][1]
*305 mem\[6\][2]
*306 mem\[6\][3]
*307 mem\[6\][4]
*308 mem\[6\][5]
*309 mem\[6\][6]
*310 mem\[6\][7]
*311 mem\[7\][0]
*312 mem\[7\][1]
*313 mem\[7\][2]
*314 mem\[7\][3]
*315 mem\[7\][4]
*316 mem\[7\][5]
*317 mem\[7\][6]
*318 mem\[7\][7]
*319 mem\[8\][0]
*320 mem\[8\][1]
*321 mem\[8\][2]
*322 mem\[8\][3]
*323 mem\[8\][4]
*324 mem\[8\][5]
*325 mem\[8\][6]
*326 mem\[8\][7]
*327 mem\[9\][0]
*328 mem\[9\][1]
*329 mem\[9\][2]
*330 mem\[9\][3]
*331 mem\[9\][4]
*332 mem\[9\][5]
*333 mem\[9\][6]
*334 mem\[9\][7]
*350 net1
*351 net2
*335 rd_en
*336 rd_ptr[0]
*337 rd_ptr[1]
*338 rd_ptr[2]
*339 rd_ptr[3]
*340 rd_ptr[4]
*341 rst
*342 wr_en
*343 wr_ptr[0]
*344 wr_ptr[1]
*345 wr_ptr[2]
*346 wr_ptr[3]
*347 wr_ptr[4]
*3558 ANTENNA_1
*3554 ANTENNA_10
*3553 ANTENNA_11
*3552 ANTENNA_12
*3559 ANTENNA_2
*3560 ANTENNA_3
*3561 ANTENNA_4
*3562 ANTENNA_5
*3563 ANTENNA_6
*3557 ANTENNA_7
*3556 ANTENNA_8
*3555 ANTENNA_9
*3539 FILLER_0_105
*3568 FILLER_0_11
*3538 FILLER_0_113
*3537 FILLER_0_121
*3536 FILLER_0_125
*3535 FILLER_0_127
*3534 FILLER_0_129
*3533 FILLER_0_137
*3532 FILLER_0_145
*3531 FILLER_0_153
*3530 FILLER_0_157
*3529 FILLER_0_159
*3528 FILLER_0_161
*3527 FILLER_0_169
*3526 FILLER_0_177
*3525 FILLER_0_185
*3524 FILLER_0_189
*3567 FILLER_0_19
*3523 FILLER_0_191
*3522 FILLER_0_193
*3521 FILLER_0_201
*3520 FILLER_0_209
*3519 FILLER_0_217
*3518 FILLER_0_221
*3517 FILLER_0_223
*3516 FILLER_0_225
*3515 FILLER_0_233
*3514 FILLER_0_241
*3513 FILLER_0_249
*3512 FILLER_0_253
*3511 FILLER_0_255
*3510 FILLER_0_257
*3509 FILLER_0_265
*3566 FILLER_0_27
*3508 FILLER_0_273
*3507 FILLER_0_281
*3506 FILLER_0_285
*3505 FILLER_0_287
*3504 FILLER_0_289
*3503 FILLER_0_297
*3569 FILLER_0_3
*3502 FILLER_0_305
*3565 FILLER_0_31
*3501 FILLER_0_313
*3500 FILLER_0_317
*3499 FILLER_0_319
*3498 FILLER_0_321
*3497 FILLER_0_329
*3564 FILLER_0_33
*3496 FILLER_0_337
*3495 FILLER_0_345
*3494 FILLER_0_349
*3493 FILLER_0_351
*3492 FILLER_0_353
*3491 FILLER_0_361
*3551 FILLER_0_41
*3550 FILLER_0_49
*3549 FILLER_0_57
*3548 FILLER_0_61
*3547 FILLER_0_63
*3546 FILLER_0_65
*3545 FILLER_0_73
*3544 FILLER_0_81
*3543 FILLER_0_89
*3542 FILLER_0_93
*3541 FILLER_0_95
*3540 FILLER_0_97
*3082 FILLER_10_11
*3075 FILLER_10_120
*3074 FILLER_10_131
*3073 FILLER_10_139
*3072 FILLER_10_147
*3071 FILLER_10_155
*3070 FILLER_10_159
*3069 FILLER_10_161
*3068 FILLER_10_163
*3067 FILLER_10_171
*3066 FILLER_10_179
*3065 FILLER_10_187
*3081 FILLER_10_19
*3064 FILLER_10_195
*3063 FILLER_10_203
*3062 FILLER_10_211
*3061 FILLER_10_219
*3060 FILLER_10_228
*3059 FILLER_10_236
*3058 FILLER_10_244
*3057 FILLER_10_252
*3056 FILLER_10_260
*3055 FILLER_10_268
*3080 FILLER_10_27
*3054 FILLER_10_276
*3053 FILLER_10_284
*3052 FILLER_10_293
*3083 FILLER_10_3
*3051 FILLER_10_301
*3050 FILLER_10_309
*3079 FILLER_10_31
*3049 FILLER_10_317
*3048 FILLER_10_325
*3078 FILLER_10_33
*3047 FILLER_10_333
*3046 FILLER_10_341
*3045 FILLER_10_349
*3044 FILLER_10_358
*3043 FILLER_10_362
*3077 FILLER_10_41
*3076 FILLER_10_98
*3037 FILLER_11_102
*3036 FILLER_11_106
*3041 FILLER_11_11
*3035 FILLER_11_125
*3034 FILLER_11_135
*3033 FILLER_11_143
*3032 FILLER_11_151
*3031 FILLER_11_159
*3030 FILLER_11_167
*3029 FILLER_11_175
*3028 FILLER_11_183
*3040 FILLER_11_19
*3027 FILLER_11_191
*3026 FILLER_11_196
*3025 FILLER_11_204
*3024 FILLER_11_212
*3023 FILLER_11_220
*3022 FILLER_11_228
*3021 FILLER_11_236
*3020 FILLER_11_244
*3019 FILLER_11_252
*3018 FILLER_11_261
*3017 FILLER_11_269
*3039 FILLER_11_27
*3016 FILLER_11_277
*3015 FILLER_11_285
*3014 FILLER_11_293
*3042 FILLER_11_3
*3013 FILLER_11_301
*3012 FILLER_11_309
*3011 FILLER_11_317
*3010 FILLER_11_326
*3009 FILLER_11_334
*3008 FILLER_11_342
*3038 FILLER_11_35
*3007 FILLER_11_350
*3006 FILLER_11_358
*3005 FILLER_11_362
*3003 FILLER_12_11
*2999 FILLER_12_140
*2998 FILLER_12_148
*2997 FILLER_12_156
*2996 FILLER_12_160
*2995 FILLER_12_163
*2994 FILLER_12_171
*2993 FILLER_12_179
*2992 FILLER_12_187
*3002 FILLER_12_19
*2991 FILLER_12_195
*2990 FILLER_12_203
*2989 FILLER_12_211
*2988 FILLER_12_219
*2987 FILLER_12_228
*2986 FILLER_12_236
*2985 FILLER_12_244
*2984 FILLER_12_252
*2983 FILLER_12_260
*2982 FILLER_12_268
*3001 FILLER_12_27
*2981 FILLER_12_276
*2980 FILLER_12_284
*2979 FILLER_12_293
*3004 FILLER_12_3
*2978 FILLER_12_301
*2977 FILLER_12_309
*3000 FILLER_12_31
*2976 FILLER_12_317
*2975 FILLER_12_325
*2974 FILLER_12_333
*2973 FILLER_12_341
*2972 FILLER_12_349
*2971 FILLER_12_358
*2970 FILLER_12_362
*2968 FILLER_13_11
*2965 FILLER_13_148
*2964 FILLER_13_156
*2963 FILLER_13_164
*2962 FILLER_13_172
*2961 FILLER_13_180
*2960 FILLER_13_188
*2967 FILLER_13_19
*2959 FILLER_13_192
*2958 FILLER_13_194
*2957 FILLER_13_196
*2956 FILLER_13_204
*2955 FILLER_13_212
*2954 FILLER_13_216
*2953 FILLER_13_218
*2952 FILLER_13_222
*2951 FILLER_13_230
*2950 FILLER_13_238
*2949 FILLER_13_246
*2948 FILLER_13_254
*2947 FILLER_13_258
*2946 FILLER_13_261
*2945 FILLER_13_269
*2966 FILLER_13_27
*2944 FILLER_13_277
*2943 FILLER_13_285
*2942 FILLER_13_293
*2969 FILLER_13_3
*2941 FILLER_13_301
*2940 FILLER_13_309
*2939 FILLER_13_317
*2938 FILLER_13_326
*2937 FILLER_13_334
*2936 FILLER_13_342
*2935 FILLER_13_350
*2934 FILLER_13_358
*2933 FILLER_13_362
*2931 FILLER_14_11
*2930 FILLER_14_146
*2929 FILLER_14_154
*2928 FILLER_14_163
*2927 FILLER_14_171
*2926 FILLER_14_179
*2925 FILLER_14_187
*2924 FILLER_14_195
*2923 FILLER_14_203
*2922 FILLER_14_211
*2921 FILLER_14_219
*2920 FILLER_14_228
*2919 FILLER_14_236
*2918 FILLER_14_244
*2917 FILLER_14_252
*2916 FILLER_14_260
*2915 FILLER_14_268
*2914 FILLER_14_276
*2913 FILLER_14_284
*2912 FILLER_14_293
*2932 FILLER_14_3
*2911 FILLER_14_301
*2910 FILLER_14_309
*2909 FILLER_14_317
*2908 FILLER_14_325
*2907 FILLER_14_333
*2906 FILLER_14_341
*2905 FILLER_14_349
*2904 FILLER_14_358
*2903 FILLER_14_362
*2901 FILLER_15_11
*2900 FILLER_15_13
*2899 FILLER_15_149
*2898 FILLER_15_159
*2897 FILLER_15_167
*2896 FILLER_15_175
*2895 FILLER_15_183
*2894 FILLER_15_191
*2893 FILLER_15_196
*2892 FILLER_15_204
*2891 FILLER_15_212
*2890 FILLER_15_220
*2889 FILLER_15_224
*2888 FILLER_15_232
*2887 FILLER_15_240
*2886 FILLER_15_248
*2885 FILLER_15_256
*2884 FILLER_15_261
*2883 FILLER_15_269
*2882 FILLER_15_277
*2881 FILLER_15_285
*2880 FILLER_15_293
*2902 FILLER_15_3
*2879 FILLER_15_301
*2878 FILLER_15_309
*2877 FILLER_15_317
*2876 FILLER_15_326
*2875 FILLER_15_334
*2874 FILLER_15_342
*2873 FILLER_15_350
*2872 FILLER_15_358
*2871 FILLER_15_362
*2868 FILLER_16_159
*2867 FILLER_16_161
*2866 FILLER_16_167
*2865 FILLER_16_175
*2864 FILLER_16_183
*2863 FILLER_16_191
*2862 FILLER_16_199
*2861 FILLER_16_207
*2860 FILLER_16_215
*2859 FILLER_16_223
*2858 FILLER_16_228
*2857 FILLER_16_236
*2856 FILLER_16_244
*2855 FILLER_16_252
*2854 FILLER_16_260
*2853 FILLER_16_268
*2852 FILLER_16_276
*2851 FILLER_16_284
*2850 FILLER_16_293
*2870 FILLER_16_3
*2849 FILLER_16_301
*2848 FILLER_16_309
*2847 FILLER_16_317
*2846 FILLER_16_325
*2845 FILLER_16_333
*2844 FILLER_16_341
*2843 FILLER_16_349
*2842 FILLER_16_358
*2841 FILLER_16_362
*2869 FILLER_16_7
*2838 FILLER_17_12
*2836 FILLER_17_128
*2837 FILLER_17_16
*2835 FILLER_17_173
*2834 FILLER_17_181
*2833 FILLER_17_189
*2832 FILLER_17_193
*2831 FILLER_17_196
*2830 FILLER_17_204
*2829 FILLER_17_212
*2828 FILLER_17_220
*2827 FILLER_17_228
*2826 FILLER_17_236
*2825 FILLER_17_244
*2824 FILLER_17_252
*2823 FILLER_17_261
*2822 FILLER_17_269
*2821 FILLER_17_277
*2820 FILLER_17_285
*2819 FILLER_17_293
*2840 FILLER_17_3
*2818 FILLER_17_301
*2817 FILLER_17_309
*2816 FILLER_17_317
*2815 FILLER_17_326
*2814 FILLER_17_334
*2813 FILLER_17_342
*2812 FILLER_17_350
*2811 FILLER_17_358
*2810 FILLER_17_362
*2839 FILLER_17_7
*2809 FILLER_18_161
*2808 FILLER_18_167
*2807 FILLER_18_175
*2806 FILLER_18_183
*2805 FILLER_18_191
*2804 FILLER_18_199
*2803 FILLER_18_207
*2802 FILLER_18_215
*2801 FILLER_18_223
*2800 FILLER_18_228
*2799 FILLER_18_236
*2798 FILLER_18_244
*2797 FILLER_18_252
*2796 FILLER_18_260
*2795 FILLER_18_268
*2794 FILLER_18_276
*2793 FILLER_18_284
*2792 FILLER_18_293
*2791 FILLER_18_301
*2790 FILLER_18_309
*2789 FILLER_18_317
*2788 FILLER_18_325
*2787 FILLER_18_333
*2786 FILLER_18_341
*2785 FILLER_18_349
*2784 FILLER_18_358
*2783 FILLER_18_362
*2782 FILLER_19_127
*2781 FILLER_19_129
*2780 FILLER_19_173
*2779 FILLER_19_181
*2778 FILLER_19_189
*2777 FILLER_19_193
*2776 FILLER_19_196
*2775 FILLER_19_204
*2774 FILLER_19_212
*2773 FILLER_19_220
*2772 FILLER_19_228
*2771 FILLER_19_236
*2770 FILLER_19_244
*2769 FILLER_19_252
*2768 FILLER_19_261
*2767 FILLER_19_269
*2766 FILLER_19_277
*2765 FILLER_19_285
*2764 FILLER_19_293
*2763 FILLER_19_301
*2762 FILLER_19_309
*2761 FILLER_19_317
*2760 FILLER_19_326
*2759 FILLER_19_334
*2758 FILLER_19_342
*2757 FILLER_19_350
*2756 FILLER_19_358
*2755 FILLER_19_362
*3476 FILLER_1_106
*3489 FILLER_1_11
*3475 FILLER_1_114
*3474 FILLER_1_122
*3473 FILLER_1_131
*3472 FILLER_1_139
*3471 FILLER_1_147
*3470 FILLER_1_155
*3469 FILLER_1_163
*3468 FILLER_1_171
*3467 FILLER_1_179
*3466 FILLER_1_187
*3488 FILLER_1_19
*3465 FILLER_1_196
*3464 FILLER_1_204
*3463 FILLER_1_212
*3462 FILLER_1_220
*3461 FILLER_1_228
*3460 FILLER_1_236
*3459 FILLER_1_244
*3458 FILLER_1_252
*3457 FILLER_1_261
*3456 FILLER_1_269
*3487 FILLER_1_27
*3455 FILLER_1_277
*3454 FILLER_1_285
*3453 FILLER_1_293
*3490 FILLER_1_3
*3452 FILLER_1_301
*3451 FILLER_1_309
*3450 FILLER_1_317
*3449 FILLER_1_326
*3448 FILLER_1_334
*3447 FILLER_1_342
*3486 FILLER_1_35
*3446 FILLER_1_350
*3445 FILLER_1_358
*3444 FILLER_1_362
*3485 FILLER_1_43
*3484 FILLER_1_51
*3483 FILLER_1_59
*3482 FILLER_1_63
*3481 FILLER_1_66
*3480 FILLER_1_74
*3479 FILLER_1_82
*3478 FILLER_1_90
*3477 FILLER_1_98
*2754 FILLER_20_179
*2753 FILLER_20_187
*2752 FILLER_20_195
*2751 FILLER_20_203
*2750 FILLER_20_211
*2749 FILLER_20_219
*2748 FILLER_20_228
*2747 FILLER_20_236
*2746 FILLER_20_244
*2745 FILLER_20_252
*2744 FILLER_20_260
*2743 FILLER_20_268
*2742 FILLER_20_276
*2741 FILLER_20_284
*2740 FILLER_20_293
*2739 FILLER_20_301
*2738 FILLER_20_309
*2737 FILLER_20_317
*2736 FILLER_20_325
*2735 FILLER_20_333
*2734 FILLER_20_341
*2733 FILLER_20_349
*2732 FILLER_20_358
*2731 FILLER_20_362
*2730 FILLER_21_188
*2729 FILLER_21_192
*2728 FILLER_21_194
*2727 FILLER_21_196
*2726 FILLER_21_204
*2725 FILLER_21_208
*2724 FILLER_21_212
*2723 FILLER_21_220
*2722 FILLER_21_228
*2721 FILLER_21_236
*2720 FILLER_21_244
*2719 FILLER_21_252
*2718 FILLER_21_261
*2717 FILLER_21_269
*2716 FILLER_21_277
*2715 FILLER_21_285
*2714 FILLER_21_293
*2713 FILLER_21_301
*2712 FILLER_21_309
*2711 FILLER_21_317
*2710 FILLER_21_326
*2709 FILLER_21_334
*2708 FILLER_21_342
*2707 FILLER_21_350
*2706 FILLER_21_358
*2705 FILLER_21_362
*2704 FILLER_22_192
*2703 FILLER_22_200
*2702 FILLER_22_208
*2701 FILLER_22_216
*2700 FILLER_22_224
*2699 FILLER_22_226
*2698 FILLER_22_228
*2697 FILLER_22_236
*2696 FILLER_22_244
*2695 FILLER_22_252
*2694 FILLER_22_260
*2693 FILLER_22_268
*2692 FILLER_22_276
*2691 FILLER_22_284
*2690 FILLER_22_293
*2689 FILLER_22_301
*2688 FILLER_22_309
*2687 FILLER_22_317
*2686 FILLER_22_325
*2685 FILLER_22_333
*2684 FILLER_22_341
*2683 FILLER_22_349
*2682 FILLER_22_358
*2681 FILLER_22_362
*2680 FILLER_23_128
*2679 FILLER_23_193
*2678 FILLER_23_196
*2677 FILLER_23_204
*2676 FILLER_23_212
*2675 FILLER_23_220
*2674 FILLER_23_228
*2673 FILLER_23_236
*2672 FILLER_23_244
*2671 FILLER_23_252
*2670 FILLER_23_261
*2669 FILLER_23_269
*2668 FILLER_23_277
*2667 FILLER_23_285
*2666 FILLER_23_293
*2665 FILLER_23_301
*2664 FILLER_23_309
*2663 FILLER_23_317
*2662 FILLER_23_326
*2661 FILLER_23_334
*2660 FILLER_23_342
*2659 FILLER_23_350
*2658 FILLER_23_358
*2657 FILLER_23_362
*2656 FILLER_24_204
*2655 FILLER_24_212
*2654 FILLER_24_220
*2653 FILLER_24_224
*2652 FILLER_24_226
*2651 FILLER_24_228
*2650 FILLER_24_236
*2649 FILLER_24_244
*2648 FILLER_24_252
*2647 FILLER_24_260
*2646 FILLER_24_268
*2645 FILLER_24_276
*2644 FILLER_24_284
*2643 FILLER_24_293
*2642 FILLER_24_301
*2641 FILLER_24_309
*2640 FILLER_24_317
*2639 FILLER_24_325
*2638 FILLER_24_333
*2637 FILLER_24_341
*2636 FILLER_24_349
*2635 FILLER_24_358
*2634 FILLER_24_362
*2633 FILLER_25_129
*2632 FILLER_25_207
*2631 FILLER_25_215
*2630 FILLER_25_223
*2629 FILLER_25_231
*2628 FILLER_25_239
*2627 FILLER_25_247
*2626 FILLER_25_255
*2625 FILLER_25_259
*2624 FILLER_25_261
*2623 FILLER_25_269
*2622 FILLER_25_277
*2621 FILLER_25_285
*2620 FILLER_25_293
*2619 FILLER_25_301
*2618 FILLER_25_309
*2617 FILLER_25_317
*2616 FILLER_25_326
*2615 FILLER_25_334
*2614 FILLER_25_342
*2613 FILLER_25_350
*2612 FILLER_25_358
*2611 FILLER_25_362
*2610 FILLER_26_204
*2609 FILLER_26_212
*2608 FILLER_26_220
*2607 FILLER_26_224
*2606 FILLER_26_226
*2605 FILLER_26_228
*2604 FILLER_26_236
*2603 FILLER_26_244
*2602 FILLER_26_252
*2601 FILLER_26_260
*2600 FILLER_26_268
*2599 FILLER_26_276
*2598 FILLER_26_284
*2597 FILLER_26_293
*2596 FILLER_26_301
*2595 FILLER_26_309
*2594 FILLER_26_317
*2593 FILLER_26_325
*2592 FILLER_26_333
*2591 FILLER_26_341
*2590 FILLER_26_349
*2589 FILLER_26_358
*2588 FILLER_26_362
*2587 FILLER_27_128
*2586 FILLER_27_193
*2585 FILLER_27_200
*2584 FILLER_27_208
*2583 FILLER_27_216
*2582 FILLER_27_224
*2581 FILLER_27_232
*2580 FILLER_27_240
*2579 FILLER_27_248
*2578 FILLER_27_256
*2577 FILLER_27_261
*2576 FILLER_27_269
*2575 FILLER_27_277
*2574 FILLER_27_285
*2573 FILLER_27_293
*2572 FILLER_27_301
*2571 FILLER_27_309
*2570 FILLER_27_317
*2569 FILLER_27_326
*2568 FILLER_27_334
*2567 FILLER_27_342
*2566 FILLER_27_350
*2565 FILLER_27_358
*2564 FILLER_27_362
*2563 FILLER_28_192
*2562 FILLER_28_200
*2561 FILLER_28_208
*2560 FILLER_28_216
*2559 FILLER_28_224
*2558 FILLER_28_226
*2557 FILLER_28_228
*2556 FILLER_28_236
*2555 FILLER_28_244
*2554 FILLER_28_252
*2553 FILLER_28_260
*2552 FILLER_28_268
*2551 FILLER_28_276
*2550 FILLER_28_284
*2549 FILLER_28_293
*2548 FILLER_28_301
*2547 FILLER_28_309
*2546 FILLER_28_317
*2545 FILLER_28_325
*2544 FILLER_28_333
*2543 FILLER_28_341
*2542 FILLER_28_349
*2541 FILLER_28_358
*2540 FILLER_28_362
*2539 FILLER_29_128
*2538 FILLER_29_186
*2537 FILLER_29_194
*2536 FILLER_29_196
*2535 FILLER_29_204
*2534 FILLER_29_212
*2533 FILLER_29_220
*2532 FILLER_29_228
*2531 FILLER_29_236
*2530 FILLER_29_244
*2529 FILLER_29_252
*2528 FILLER_29_261
*2527 FILLER_29_269
*2526 FILLER_29_277
*2525 FILLER_29_285
*2524 FILLER_29_293
*2523 FILLER_29_301
*2522 FILLER_29_309
*2521 FILLER_29_317
*2520 FILLER_29_326
*2519 FILLER_29_334
*2518 FILLER_29_342
*2517 FILLER_29_350
*2516 FILLER_29_358
*2515 FILLER_29_362
*3429 FILLER_2_106
*3442 FILLER_2_11
*3428 FILLER_2_114
*3427 FILLER_2_122
*3426 FILLER_2_130
*3425 FILLER_2_138
*3424 FILLER_2_146
*3423 FILLER_2_154
*3422 FILLER_2_163
*3421 FILLER_2_171
*3420 FILLER_2_179
*3419 FILLER_2_187
*3441 FILLER_2_19
*3418 FILLER_2_195
*3417 FILLER_2_203
*3416 FILLER_2_211
*3415 FILLER_2_219
*3414 FILLER_2_228
*3413 FILLER_2_236
*3412 FILLER_2_244
*3411 FILLER_2_252
*3410 FILLER_2_260
*3409 FILLER_2_268
*3440 FILLER_2_27
*3408 FILLER_2_276
*3407 FILLER_2_284
*3406 FILLER_2_293
*3443 FILLER_2_3
*3405 FILLER_2_301
*3404 FILLER_2_309
*3439 FILLER_2_31
*3403 FILLER_2_317
*3402 FILLER_2_325
*3438 FILLER_2_33
*3401 FILLER_2_333
*3400 FILLER_2_341
*3399 FILLER_2_349
*3398 FILLER_2_358
*3397 FILLER_2_362
*3437 FILLER_2_41
*3436 FILLER_2_49
*3435 FILLER_2_57
*3434 FILLER_2_65
*3433 FILLER_2_73
*3432 FILLER_2_81
*3431 FILLER_2_89
*3430 FILLER_2_98
*2514 FILLER_30_181
*2513 FILLER_30_189
*2512 FILLER_30_197
*2511 FILLER_30_205
*2510 FILLER_30_213
*2509 FILLER_30_221
*2508 FILLER_30_225
*2507 FILLER_30_228
*2506 FILLER_30_236
*2505 FILLER_30_244
*2504 FILLER_30_252
*2503 FILLER_30_260
*2502 FILLER_30_268
*2501 FILLER_30_276
*2500 FILLER_30_284
*2499 FILLER_30_293
*2498 FILLER_30_301
*2497 FILLER_30_309
*2496 FILLER_30_317
*2495 FILLER_30_325
*2494 FILLER_30_333
*2493 FILLER_30_341
*2492 FILLER_30_349
*2491 FILLER_30_358
*2490 FILLER_30_362
*2489 FILLER_31_10
*2488 FILLER_31_128
*2487 FILLER_31_173
*2486 FILLER_31_181
*2485 FILLER_31_189
*2484 FILLER_31_193
*2483 FILLER_31_196
*2482 FILLER_31_204
*2481 FILLER_31_212
*2480 FILLER_31_220
*2479 FILLER_31_228
*2478 FILLER_31_236
*2477 FILLER_31_244
*2476 FILLER_31_252
*2475 FILLER_31_261
*2474 FILLER_31_269
*2473 FILLER_31_277
*2472 FILLER_31_285
*2471 FILLER_31_293
*2470 FILLER_31_301
*2469 FILLER_31_309
*2468 FILLER_31_317
*2467 FILLER_31_326
*2466 FILLER_31_334
*2465 FILLER_31_342
*2464 FILLER_31_350
*2463 FILLER_31_358
*2462 FILLER_31_362
*2459 FILLER_32_161
*2458 FILLER_32_167
*2457 FILLER_32_175
*2456 FILLER_32_183
*2455 FILLER_32_191
*2454 FILLER_32_199
*2453 FILLER_32_207
*2452 FILLER_32_215
*2451 FILLER_32_223
*2450 FILLER_32_228
*2449 FILLER_32_236
*2448 FILLER_32_244
*2447 FILLER_32_252
*2446 FILLER_32_260
*2445 FILLER_32_268
*2444 FILLER_32_276
*2443 FILLER_32_284
*2442 FILLER_32_293
*2461 FILLER_32_3
*2441 FILLER_32_301
*2440 FILLER_32_309
*2439 FILLER_32_317
*2438 FILLER_32_325
*2437 FILLER_32_333
*2436 FILLER_32_341
*2435 FILLER_32_349
*2434 FILLER_32_358
*2433 FILLER_32_362
*2460 FILLER_32_7
*2431 FILLER_33_10
*2430 FILLER_33_172
*2429 FILLER_33_180
*2428 FILLER_33_188
*2427 FILLER_33_192
*2426 FILLER_33_194
*2425 FILLER_33_196
*2424 FILLER_33_204
*2423 FILLER_33_212
*2422 FILLER_33_220
*2421 FILLER_33_228
*2420 FILLER_33_236
*2419 FILLER_33_244
*2418 FILLER_33_252
*2417 FILLER_33_261
*2416 FILLER_33_269
*2415 FILLER_33_277
*2414 FILLER_33_285
*2413 FILLER_33_293
*2432 FILLER_33_3
*2412 FILLER_33_301
*2411 FILLER_33_309
*2410 FILLER_33_317
*2409 FILLER_33_326
*2408 FILLER_33_334
*2407 FILLER_33_342
*2406 FILLER_33_350
*2405 FILLER_33_358
*2404 FILLER_33_362
*2400 FILLER_34_159
*2399 FILLER_34_161
*2398 FILLER_34_163
*2397 FILLER_34_171
*2396 FILLER_34_179
*2395 FILLER_34_187
*2394 FILLER_34_195
*2393 FILLER_34_203
*2392 FILLER_34_211
*2391 FILLER_34_219
*2390 FILLER_34_228
*2389 FILLER_34_236
*2388 FILLER_34_244
*2387 FILLER_34_252
*2386 FILLER_34_260
*2385 FILLER_34_268
*2384 FILLER_34_276
*2383 FILLER_34_284
*2382 FILLER_34_293
*2403 FILLER_34_3
*2381 FILLER_34_301
*2380 FILLER_34_309
*2401 FILLER_34_31
*2379 FILLER_34_317
*2378 FILLER_34_325
*2377 FILLER_34_333
*2376 FILLER_34_341
*2375 FILLER_34_349
*2374 FILLER_34_358
*2373 FILLER_34_362
*2402 FILLER_34_7
*2371 FILLER_35_11
*2370 FILLER_35_149
*2369 FILLER_35_151
*2368 FILLER_35_160
*2367 FILLER_35_168
*2366 FILLER_35_176
*2365 FILLER_35_184
*2364 FILLER_35_192
*2363 FILLER_35_194
*2362 FILLER_35_196
*2361 FILLER_35_204
*2360 FILLER_35_212
*2359 FILLER_35_220
*2358 FILLER_35_228
*2357 FILLER_35_236
*2356 FILLER_35_244
*2355 FILLER_35_252
*2354 FILLER_35_261
*2353 FILLER_35_269
*2352 FILLER_35_277
*2351 FILLER_35_285
*2350 FILLER_35_293
*2372 FILLER_35_3
*2349 FILLER_35_301
*2348 FILLER_35_309
*2347 FILLER_35_317
*2346 FILLER_35_326
*2345 FILLER_35_334
*2344 FILLER_35_342
*2343 FILLER_35_350
*2342 FILLER_35_358
*2341 FILLER_35_362
*2339 FILLER_36_11
*2337 FILLER_36_146
*2336 FILLER_36_154
*2335 FILLER_36_163
*2334 FILLER_36_171
*2333 FILLER_36_179
*2332 FILLER_36_187
*2338 FILLER_36_19
*2331 FILLER_36_195
*2330 FILLER_36_203
*2329 FILLER_36_211
*2328 FILLER_36_219
*2327 FILLER_36_228
*2326 FILLER_36_236
*2325 FILLER_36_244
*2324 FILLER_36_252
*2323 FILLER_36_260
*2322 FILLER_36_268
*2321 FILLER_36_276
*2320 FILLER_36_284
*2319 FILLER_36_293
*2340 FILLER_36_3
*2318 FILLER_36_301
*2317 FILLER_36_309
*2316 FILLER_36_317
*2315 FILLER_36_325
*2314 FILLER_36_333
*2313 FILLER_36_341
*2312 FILLER_36_349
*2311 FILLER_36_358
*2310 FILLER_36_362
*2308 FILLER_37_11
*2305 FILLER_37_125
*2304 FILLER_37_145
*2303 FILLER_37_153
*2302 FILLER_37_161
*2301 FILLER_37_165
*2300 FILLER_37_173
*2299 FILLER_37_181
*2298 FILLER_37_189
*2307 FILLER_37_19
*2297 FILLER_37_193
*2296 FILLER_37_196
*2295 FILLER_37_204
*2294 FILLER_37_212
*2293 FILLER_37_220
*2292 FILLER_37_228
*2291 FILLER_37_236
*2290 FILLER_37_244
*2289 FILLER_37_252
*2288 FILLER_37_261
*2287 FILLER_37_269
*2306 FILLER_37_27
*2286 FILLER_37_277
*2285 FILLER_37_285
*2284 FILLER_37_293
*2309 FILLER_37_3
*2283 FILLER_37_301
*2282 FILLER_37_309
*2281 FILLER_37_317
*2280 FILLER_37_326
*2279 FILLER_37_334
*2278 FILLER_37_342
*2277 FILLER_37_350
*2276 FILLER_37_358
*2275 FILLER_37_362
*2273 FILLER_38_11
*2267 FILLER_38_140
*2266 FILLER_38_148
*2265 FILLER_38_156
*2264 FILLER_38_160
*2263 FILLER_38_163
*2262 FILLER_38_171
*2261 FILLER_38_179
*2260 FILLER_38_187
*2272 FILLER_38_19
*2259 FILLER_38_195
*2258 FILLER_38_203
*2257 FILLER_38_211
*2256 FILLER_38_219
*2255 FILLER_38_228
*2254 FILLER_38_236
*2253 FILLER_38_244
*2252 FILLER_38_252
*2251 FILLER_38_260
*2250 FILLER_38_268
*2249 FILLER_38_276
*2248 FILLER_38_284
*2247 FILLER_38_293
*2274 FILLER_38_3
*2271 FILLER_38_30
*2246 FILLER_38_301
*2245 FILLER_38_309
*2244 FILLER_38_317
*2243 FILLER_38_325
*2270 FILLER_38_33
*2242 FILLER_38_333
*2241 FILLER_38_341
*2240 FILLER_38_349
*2239 FILLER_38_358
*2238 FILLER_38_362
*2269 FILLER_38_38
*2268 FILLER_38_40
*2236 FILLER_39_11
*2229 FILLER_39_128
*2228 FILLER_39_131
*2227 FILLER_39_139
*2226 FILLER_39_147
*2225 FILLER_39_155
*2224 FILLER_39_163
*2223 FILLER_39_171
*2222 FILLER_39_179
*2221 FILLER_39_187
*2235 FILLER_39_19
*2220 FILLER_39_196
*2219 FILLER_39_204
*2218 FILLER_39_212
*2217 FILLER_39_220
*2216 FILLER_39_228
*2215 FILLER_39_236
*2214 FILLER_39_244
*2213 FILLER_39_252
*2212 FILLER_39_261
*2211 FILLER_39_269
*2234 FILLER_39_27
*2210 FILLER_39_277
*2209 FILLER_39_285
*2208 FILLER_39_293
*2237 FILLER_39_3
*2207 FILLER_39_301
*2206 FILLER_39_309
*2205 FILLER_39_317
*2204 FILLER_39_326
*2203 FILLER_39_334
*2202 FILLER_39_342
*2233 FILLER_39_35
*2201 FILLER_39_350
*2200 FILLER_39_358
*2199 FILLER_39_362
*2232 FILLER_39_39
*2231 FILLER_39_41
*2230 FILLER_39_66
*3382 FILLER_3_106
*3395 FILLER_3_11
*3381 FILLER_3_114
*3380 FILLER_3_122
*3379 FILLER_3_131
*3378 FILLER_3_139
*3377 FILLER_3_147
*3376 FILLER_3_155
*3375 FILLER_3_163
*3374 FILLER_3_171
*3373 FILLER_3_179
*3372 FILLER_3_187
*3394 FILLER_3_19
*3371 FILLER_3_196
*3370 FILLER_3_204
*3369 FILLER_3_212
*3368 FILLER_3_220
*3367 FILLER_3_228
*3366 FILLER_3_236
*3365 FILLER_3_244
*3364 FILLER_3_252
*3363 FILLER_3_261
*3362 FILLER_3_269
*3393 FILLER_3_27
*3361 FILLER_3_277
*3360 FILLER_3_285
*3359 FILLER_3_293
*3396 FILLER_3_3
*3358 FILLER_3_301
*3357 FILLER_3_309
*3356 FILLER_3_317
*3355 FILLER_3_326
*3354 FILLER_3_334
*3353 FILLER_3_342
*3392 FILLER_3_35
*3352 FILLER_3_350
*3351 FILLER_3_358
*3350 FILLER_3_362
*3391 FILLER_3_43
*3390 FILLER_3_51
*3389 FILLER_3_59
*3388 FILLER_3_63
*3387 FILLER_3_66
*3386 FILLER_3_74
*3385 FILLER_3_82
*3384 FILLER_3_90
*3383 FILLER_3_98
*2197 FILLER_40_11
*2190 FILLER_40_127
*2189 FILLER_40_135
*2188 FILLER_40_143
*2187 FILLER_40_151
*2186 FILLER_40_159
*2185 FILLER_40_161
*2184 FILLER_40_163
*2183 FILLER_40_171
*2182 FILLER_40_179
*2181 FILLER_40_187
*2196 FILLER_40_19
*2180 FILLER_40_195
*2179 FILLER_40_203
*2178 FILLER_40_211
*2177 FILLER_40_219
*2176 FILLER_40_228
*2175 FILLER_40_236
*2174 FILLER_40_244
*2173 FILLER_40_252
*2172 FILLER_40_260
*2171 FILLER_40_268
*2195 FILLER_40_27
*2170 FILLER_40_276
*2169 FILLER_40_284
*2168 FILLER_40_293
*2198 FILLER_40_3
*2167 FILLER_40_301
*2166 FILLER_40_309
*2194 FILLER_40_31
*2165 FILLER_40_317
*2164 FILLER_40_325
*2193 FILLER_40_33
*2163 FILLER_40_333
*2162 FILLER_40_341
*2161 FILLER_40_349
*2160 FILLER_40_358
*2159 FILLER_40_362
*2192 FILLER_40_41
*2191 FILLER_40_45
*2157 FILLER_41_11
*2149 FILLER_41_120
*2148 FILLER_41_128
*2147 FILLER_41_131
*2146 FILLER_41_139
*2145 FILLER_41_147
*2144 FILLER_41_155
*2143 FILLER_41_163
*2142 FILLER_41_171
*2141 FILLER_41_179
*2140 FILLER_41_187
*2156 FILLER_41_19
*2139 FILLER_41_196
*2138 FILLER_41_204
*2137 FILLER_41_212
*2136 FILLER_41_220
*2135 FILLER_41_228
*2134 FILLER_41_236
*2133 FILLER_41_244
*2132 FILLER_41_252
*2131 FILLER_41_261
*2130 FILLER_41_269
*2155 FILLER_41_27
*2129 FILLER_41_277
*2128 FILLER_41_285
*2127 FILLER_41_293
*2158 FILLER_41_3
*2126 FILLER_41_301
*2125 FILLER_41_309
*2124 FILLER_41_317
*2123 FILLER_41_326
*2122 FILLER_41_334
*2121 FILLER_41_342
*2154 FILLER_41_35
*2120 FILLER_41_350
*2119 FILLER_41_358
*2118 FILLER_41_362
*2153 FILLER_41_43
*2152 FILLER_41_47
*2151 FILLER_41_49
*2150 FILLER_41_66
*2116 FILLER_42_11
*2108 FILLER_42_115
*2107 FILLER_42_123
*2106 FILLER_42_131
*2105 FILLER_42_139
*2104 FILLER_42_147
*2103 FILLER_42_155
*2102 FILLER_42_159
*2101 FILLER_42_161
*2100 FILLER_42_163
*2099 FILLER_42_171
*2098 FILLER_42_179
*2097 FILLER_42_187
*2115 FILLER_42_19
*2096 FILLER_42_195
*2095 FILLER_42_203
*2094 FILLER_42_211
*2093 FILLER_42_219
*2092 FILLER_42_228
*2091 FILLER_42_236
*2090 FILLER_42_244
*2089 FILLER_42_252
*2088 FILLER_42_260
*2087 FILLER_42_268
*2114 FILLER_42_27
*2086 FILLER_42_276
*2085 FILLER_42_284
*2084 FILLER_42_293
*2117 FILLER_42_3
*2083 FILLER_42_301
*2082 FILLER_42_309
*2113 FILLER_42_31
*2081 FILLER_42_317
*2080 FILLER_42_325
*2112 FILLER_42_33
*2079 FILLER_42_333
*2078 FILLER_42_341
*2077 FILLER_42_349
*2076 FILLER_42_358
*2075 FILLER_42_362
*2111 FILLER_42_41
*2110 FILLER_42_49
*2109 FILLER_42_53
*2064 FILLER_43_109
*2073 FILLER_43_11
*2063 FILLER_43_117
*2062 FILLER_43_125
*2061 FILLER_43_129
*2060 FILLER_43_131
*2059 FILLER_43_139
*2058 FILLER_43_147
*2057 FILLER_43_155
*2056 FILLER_43_163
*2055 FILLER_43_171
*2054 FILLER_43_179
*2053 FILLER_43_187
*2072 FILLER_43_19
*2052 FILLER_43_196
*2051 FILLER_43_204
*2050 FILLER_43_212
*2049 FILLER_43_220
*2048 FILLER_43_228
*2047 FILLER_43_236
*2046 FILLER_43_244
*2045 FILLER_43_252
*2044 FILLER_43_261
*2043 FILLER_43_269
*2071 FILLER_43_27
*2042 FILLER_43_277
*2041 FILLER_43_285
*2040 FILLER_43_293
*2074 FILLER_43_3
*2039 FILLER_43_301
*2038 FILLER_43_309
*2037 FILLER_43_317
*2036 FILLER_43_326
*2035 FILLER_43_334
*2034 FILLER_43_342
*2070 FILLER_43_35
*2033 FILLER_43_350
*2032 FILLER_43_358
*2031 FILLER_43_362
*2069 FILLER_43_43
*2068 FILLER_43_51
*2067 FILLER_43_59
*2066 FILLER_43_61
*2065 FILLER_43_66
*2014 FILLER_44_102
*2029 FILLER_44_11
*2013 FILLER_44_110
*2012 FILLER_44_118
*2011 FILLER_44_126
*2010 FILLER_44_134
*2009 FILLER_44_142
*2008 FILLER_44_150
*2007 FILLER_44_158
*2006 FILLER_44_163
*2005 FILLER_44_171
*2004 FILLER_44_179
*2003 FILLER_44_187
*2028 FILLER_44_19
*2002 FILLER_44_195
*2001 FILLER_44_203
*2000 FILLER_44_211
*1999 FILLER_44_219
*1998 FILLER_44_228
*1997 FILLER_44_236
*1996 FILLER_44_244
*1995 FILLER_44_252
*1994 FILLER_44_260
*1993 FILLER_44_268
*2027 FILLER_44_27
*1992 FILLER_44_276
*1991 FILLER_44_284
*1990 FILLER_44_293
*2030 FILLER_44_3
*1989 FILLER_44_301
*1988 FILLER_44_309
*2026 FILLER_44_31
*1987 FILLER_44_317
*1986 FILLER_44_325
*2025 FILLER_44_33
*1985 FILLER_44_333
*1984 FILLER_44_341
*1983 FILLER_44_349
*1982 FILLER_44_358
*1981 FILLER_44_362
*2024 FILLER_44_41
*2023 FILLER_44_49
*2022 FILLER_44_57
*2021 FILLER_44_65
*2020 FILLER_44_69
*2019 FILLER_44_73
*2018 FILLER_44_81
*2017 FILLER_44_85
*2016 FILLER_44_90
*2015 FILLER_44_92
*1966 FILLER_45_106
*1979 FILLER_45_11
*1965 FILLER_45_114
*1964 FILLER_45_122
*1963 FILLER_45_131
*1962 FILLER_45_139
*1961 FILLER_45_147
*1960 FILLER_45_155
*1959 FILLER_45_163
*1958 FILLER_45_171
*1957 FILLER_45_179
*1956 FILLER_45_187
*1978 FILLER_45_19
*1955 FILLER_45_196
*1954 FILLER_45_204
*1953 FILLER_45_212
*1952 FILLER_45_220
*1951 FILLER_45_228
*1950 FILLER_45_236
*1949 FILLER_45_244
*1948 FILLER_45_252
*1947 FILLER_45_261
*1946 FILLER_45_269
*1977 FILLER_45_27
*1945 FILLER_45_277
*1944 FILLER_45_285
*1943 FILLER_45_293
*1980 FILLER_45_3
*1942 FILLER_45_301
*1941 FILLER_45_309
*1940 FILLER_45_317
*1939 FILLER_45_326
*1938 FILLER_45_334
*1937 FILLER_45_342
*1976 FILLER_45_35
*1936 FILLER_45_350
*1935 FILLER_45_358
*1934 FILLER_45_362
*1975 FILLER_45_43
*1974 FILLER_45_51
*1973 FILLER_45_59
*1972 FILLER_45_63
*1971 FILLER_45_66
*1970 FILLER_45_74
*1969 FILLER_45_82
*1968 FILLER_45_90
*1967 FILLER_45_98
*1919 FILLER_46_106
*1932 FILLER_46_11
*1918 FILLER_46_114
*1917 FILLER_46_122
*1916 FILLER_46_130
*1915 FILLER_46_138
*1914 FILLER_46_146
*1913 FILLER_46_154
*1912 FILLER_46_163
*1911 FILLER_46_171
*1910 FILLER_46_179
*1909 FILLER_46_187
*1931 FILLER_46_19
*1908 FILLER_46_195
*1907 FILLER_46_203
*1906 FILLER_46_211
*1905 FILLER_46_219
*1904 FILLER_46_228
*1903 FILLER_46_236
*1902 FILLER_46_244
*1901 FILLER_46_252
*1900 FILLER_46_260
*1899 FILLER_46_268
*1930 FILLER_46_27
*1898 FILLER_46_276
*1897 FILLER_46_284
*1896 FILLER_46_293
*1933 FILLER_46_3
*1895 FILLER_46_301
*1894 FILLER_46_309
*1929 FILLER_46_31
*1893 FILLER_46_317
*1892 FILLER_46_325
*1928 FILLER_46_33
*1891 FILLER_46_333
*1890 FILLER_46_341
*1889 FILLER_46_349
*1888 FILLER_46_358
*1887 FILLER_46_362
*1927 FILLER_46_41
*1926 FILLER_46_49
*1925 FILLER_46_57
*1924 FILLER_46_65
*1923 FILLER_46_73
*1922 FILLER_46_81
*1921 FILLER_46_89
*1920 FILLER_46_98
*1872 FILLER_47_106
*1885 FILLER_47_11
*1871 FILLER_47_114
*1870 FILLER_47_122
*1869 FILLER_47_131
*1868 FILLER_47_139
*1867 FILLER_47_147
*1866 FILLER_47_155
*1865 FILLER_47_163
*1864 FILLER_47_171
*1863 FILLER_47_179
*1862 FILLER_47_187
*1884 FILLER_47_19
*1861 FILLER_47_196
*1860 FILLER_47_204
*1859 FILLER_47_212
*1858 FILLER_47_220
*1857 FILLER_47_228
*1856 FILLER_47_236
*1855 FILLER_47_244
*1854 FILLER_47_252
*1853 FILLER_47_261
*1852 FILLER_47_269
*1883 FILLER_47_27
*1851 FILLER_47_277
*1850 FILLER_47_285
*1849 FILLER_47_293
*1886 FILLER_47_3
*1848 FILLER_47_301
*1847 FILLER_47_309
*1846 FILLER_47_317
*1845 FILLER_47_326
*1844 FILLER_47_334
*1843 FILLER_47_342
*1882 FILLER_47_35
*1842 FILLER_47_350
*1841 FILLER_47_358
*1840 FILLER_47_362
*1881 FILLER_47_43
*1880 FILLER_47_51
*1879 FILLER_47_59
*1878 FILLER_47_63
*1877 FILLER_47_66
*1876 FILLER_47_74
*1875 FILLER_47_82
*1874 FILLER_47_90
*1873 FILLER_47_98
*1825 FILLER_48_106
*1838 FILLER_48_11
*1824 FILLER_48_114
*1823 FILLER_48_122
*1822 FILLER_48_130
*1821 FILLER_48_138
*1820 FILLER_48_146
*1819 FILLER_48_154
*1818 FILLER_48_163
*1817 FILLER_48_171
*1816 FILLER_48_179
*1815 FILLER_48_187
*1837 FILLER_48_19
*1814 FILLER_48_195
*1813 FILLER_48_203
*1812 FILLER_48_211
*1811 FILLER_48_219
*1810 FILLER_48_228
*1809 FILLER_48_236
*1808 FILLER_48_244
*1807 FILLER_48_252
*1806 FILLER_48_260
*1805 FILLER_48_268
*1836 FILLER_48_27
*1804 FILLER_48_276
*1803 FILLER_48_284
*1802 FILLER_48_293
*1839 FILLER_48_3
*1801 FILLER_48_301
*1800 FILLER_48_309
*1835 FILLER_48_31
*1799 FILLER_48_317
*1798 FILLER_48_325
*1834 FILLER_48_33
*1797 FILLER_48_333
*1796 FILLER_48_341
*1795 FILLER_48_349
*1794 FILLER_48_358
*1793 FILLER_48_362
*1833 FILLER_48_41
*1832 FILLER_48_49
*1831 FILLER_48_57
*1830 FILLER_48_65
*1829 FILLER_48_73
*1828 FILLER_48_81
*1827 FILLER_48_89
*1826 FILLER_48_98
*1778 FILLER_49_106
*1791 FILLER_49_11
*1777 FILLER_49_114
*1776 FILLER_49_122
*1775 FILLER_49_131
*1774 FILLER_49_139
*1773 FILLER_49_147
*1772 FILLER_49_155
*1771 FILLER_49_163
*1770 FILLER_49_171
*1769 FILLER_49_179
*1768 FILLER_49_187
*1790 FILLER_49_19
*1767 FILLER_49_196
*1766 FILLER_49_204
*1765 FILLER_49_212
*1764 FILLER_49_220
*1763 FILLER_49_228
*1762 FILLER_49_236
*1761 FILLER_49_244
*1760 FILLER_49_252
*1759 FILLER_49_261
*1758 FILLER_49_269
*1789 FILLER_49_27
*1757 FILLER_49_277
*1756 FILLER_49_285
*1755 FILLER_49_293
*1792 FILLER_49_3
*1754 FILLER_49_301
*1753 FILLER_49_309
*1752 FILLER_49_317
*1751 FILLER_49_326
*1750 FILLER_49_334
*1749 FILLER_49_342
*1788 FILLER_49_35
*1748 FILLER_49_350
*1747 FILLER_49_358
*1746 FILLER_49_362
*1787 FILLER_49_43
*1786 FILLER_49_51
*1785 FILLER_49_59
*1784 FILLER_49_63
*1783 FILLER_49_66
*1782 FILLER_49_74
*1781 FILLER_49_82
*1780 FILLER_49_90
*1779 FILLER_49_98
*3335 FILLER_4_106
*3348 FILLER_4_11
*3334 FILLER_4_114
*3333 FILLER_4_122
*3332 FILLER_4_130
*3331 FILLER_4_138
*3330 FILLER_4_146
*3329 FILLER_4_154
*3328 FILLER_4_163
*3327 FILLER_4_171
*3326 FILLER_4_179
*3325 FILLER_4_187
*3347 FILLER_4_19
*3324 FILLER_4_195
*3323 FILLER_4_203
*3322 FILLER_4_211
*3321 FILLER_4_219
*3320 FILLER_4_228
*3319 FILLER_4_236
*3318 FILLER_4_244
*3317 FILLER_4_252
*3316 FILLER_4_260
*3315 FILLER_4_268
*3346 FILLER_4_27
*3314 FILLER_4_276
*3313 FILLER_4_284
*3312 FILLER_4_293
*3349 FILLER_4_3
*3311 FILLER_4_301
*3310 FILLER_4_309
*3345 FILLER_4_31
*3309 FILLER_4_317
*3308 FILLER_4_325
*3344 FILLER_4_33
*3307 FILLER_4_333
*3306 FILLER_4_341
*3305 FILLER_4_349
*3304 FILLER_4_358
*3303 FILLER_4_362
*3343 FILLER_4_41
*3342 FILLER_4_49
*3341 FILLER_4_57
*3340 FILLER_4_65
*3339 FILLER_4_73
*3338 FILLER_4_81
*3337 FILLER_4_89
*3336 FILLER_4_98
*1731 FILLER_50_106
*1744 FILLER_50_11
*1730 FILLER_50_114
*1729 FILLER_50_122
*1728 FILLER_50_130
*1727 FILLER_50_138
*1726 FILLER_50_146
*1725 FILLER_50_154
*1724 FILLER_50_163
*1723 FILLER_50_171
*1722 FILLER_50_179
*1721 FILLER_50_187
*1743 FILLER_50_19
*1720 FILLER_50_195
*1719 FILLER_50_203
*1718 FILLER_50_211
*1717 FILLER_50_219
*1716 FILLER_50_228
*1715 FILLER_50_236
*1714 FILLER_50_244
*1713 FILLER_50_252
*1712 FILLER_50_260
*1711 FILLER_50_268
*1742 FILLER_50_27
*1710 FILLER_50_276
*1709 FILLER_50_284
*1708 FILLER_50_293
*1745 FILLER_50_3
*1707 FILLER_50_301
*1706 FILLER_50_309
*1741 FILLER_50_31
*1705 FILLER_50_317
*1704 FILLER_50_325
*1740 FILLER_50_33
*1703 FILLER_50_333
*1702 FILLER_50_341
*1701 FILLER_50_349
*1700 FILLER_50_358
*1699 FILLER_50_362
*1739 FILLER_50_41
*1738 FILLER_50_49
*1737 FILLER_50_57
*1736 FILLER_50_65
*1735 FILLER_50_73
*1734 FILLER_50_81
*1733 FILLER_50_89
*1732 FILLER_50_98
*1684 FILLER_51_106
*1697 FILLER_51_11
*1683 FILLER_51_114
*1682 FILLER_51_122
*1681 FILLER_51_131
*1680 FILLER_51_139
*1679 FILLER_51_147
*1678 FILLER_51_155
*1677 FILLER_51_163
*1676 FILLER_51_171
*1675 FILLER_51_179
*1674 FILLER_51_187
*1696 FILLER_51_19
*1673 FILLER_51_196
*1672 FILLER_51_204
*1671 FILLER_51_212
*1670 FILLER_51_220
*1669 FILLER_51_228
*1668 FILLER_51_236
*1667 FILLER_51_244
*1666 FILLER_51_252
*1665 FILLER_51_261
*1664 FILLER_51_269
*1695 FILLER_51_27
*1663 FILLER_51_277
*1662 FILLER_51_285
*1661 FILLER_51_293
*1698 FILLER_51_3
*1660 FILLER_51_301
*1659 FILLER_51_309
*1658 FILLER_51_317
*1657 FILLER_51_326
*1656 FILLER_51_334
*1655 FILLER_51_342
*1694 FILLER_51_35
*1654 FILLER_51_350
*1653 FILLER_51_358
*1652 FILLER_51_362
*1693 FILLER_51_43
*1692 FILLER_51_51
*1691 FILLER_51_59
*1690 FILLER_51_63
*1689 FILLER_51_66
*1688 FILLER_51_74
*1687 FILLER_51_82
*1686 FILLER_51_90
*1685 FILLER_51_98
*1637 FILLER_52_106
*1650 FILLER_52_11
*1636 FILLER_52_114
*1635 FILLER_52_122
*1634 FILLER_52_130
*1633 FILLER_52_138
*1632 FILLER_52_146
*1631 FILLER_52_154
*1630 FILLER_52_163
*1629 FILLER_52_171
*1628 FILLER_52_179
*1627 FILLER_52_187
*1649 FILLER_52_19
*1626 FILLER_52_195
*1625 FILLER_52_203
*1624 FILLER_52_211
*1623 FILLER_52_219
*1622 FILLER_52_228
*1621 FILLER_52_236
*1620 FILLER_52_244
*1619 FILLER_52_252
*1618 FILLER_52_260
*1617 FILLER_52_268
*1648 FILLER_52_27
*1616 FILLER_52_276
*1615 FILLER_52_284
*1614 FILLER_52_293
*1651 FILLER_52_3
*1613 FILLER_52_301
*1612 FILLER_52_309
*1647 FILLER_52_31
*1611 FILLER_52_317
*1610 FILLER_52_325
*1646 FILLER_52_33
*1609 FILLER_52_333
*1608 FILLER_52_341
*1607 FILLER_52_349
*1606 FILLER_52_358
*1605 FILLER_52_362
*1645 FILLER_52_41
*1644 FILLER_52_49
*1643 FILLER_52_57
*1642 FILLER_52_65
*1641 FILLER_52_73
*1640 FILLER_52_81
*1639 FILLER_52_89
*1638 FILLER_52_98
*1590 FILLER_53_106
*1603 FILLER_53_11
*1589 FILLER_53_114
*1588 FILLER_53_122
*1587 FILLER_53_131
*1586 FILLER_53_139
*1585 FILLER_53_147
*1584 FILLER_53_155
*1583 FILLER_53_163
*1582 FILLER_53_171
*1581 FILLER_53_179
*1580 FILLER_53_187
*1602 FILLER_53_19
*1579 FILLER_53_196
*1578 FILLER_53_204
*1577 FILLER_53_212
*1576 FILLER_53_220
*1575 FILLER_53_228
*1574 FILLER_53_236
*1573 FILLER_53_244
*1572 FILLER_53_252
*1571 FILLER_53_261
*1570 FILLER_53_269
*1601 FILLER_53_27
*1569 FILLER_53_277
*1568 FILLER_53_285
*1567 FILLER_53_293
*1604 FILLER_53_3
*1566 FILLER_53_301
*1565 FILLER_53_309
*1564 FILLER_53_317
*1563 FILLER_53_326
*1562 FILLER_53_334
*1561 FILLER_53_342
*1600 FILLER_53_35
*1560 FILLER_53_350
*1559 FILLER_53_358
*1558 FILLER_53_362
*1599 FILLER_53_43
*1598 FILLER_53_51
*1597 FILLER_53_59
*1596 FILLER_53_63
*1595 FILLER_53_66
*1594 FILLER_53_74
*1593 FILLER_53_82
*1592 FILLER_53_90
*1591 FILLER_53_98
*1543 FILLER_54_106
*1556 FILLER_54_11
*1542 FILLER_54_114
*1541 FILLER_54_122
*1540 FILLER_54_130
*1539 FILLER_54_138
*1538 FILLER_54_146
*1537 FILLER_54_154
*1536 FILLER_54_163
*1535 FILLER_54_171
*1534 FILLER_54_179
*1533 FILLER_54_187
*1555 FILLER_54_19
*1532 FILLER_54_195
*1531 FILLER_54_203
*1530 FILLER_54_211
*1529 FILLER_54_219
*1528 FILLER_54_228
*1527 FILLER_54_236
*1526 FILLER_54_244
*1525 FILLER_54_252
*1524 FILLER_54_260
*1523 FILLER_54_268
*1554 FILLER_54_27
*1522 FILLER_54_276
*1521 FILLER_54_284
*1520 FILLER_54_293
*1557 FILLER_54_3
*1519 FILLER_54_301
*1518 FILLER_54_309
*1553 FILLER_54_31
*1517 FILLER_54_317
*1516 FILLER_54_325
*1552 FILLER_54_33
*1515 FILLER_54_333
*1514 FILLER_54_341
*1513 FILLER_54_349
*1512 FILLER_54_358
*1511 FILLER_54_362
*1551 FILLER_54_41
*1550 FILLER_54_49
*1549 FILLER_54_57
*1548 FILLER_54_65
*1547 FILLER_54_73
*1546 FILLER_54_81
*1545 FILLER_54_89
*1544 FILLER_54_98
*1496 FILLER_55_106
*1509 FILLER_55_11
*1495 FILLER_55_114
*1494 FILLER_55_122
*1493 FILLER_55_131
*1492 FILLER_55_139
*1491 FILLER_55_147
*1490 FILLER_55_155
*1489 FILLER_55_163
*1488 FILLER_55_171
*1487 FILLER_55_179
*1486 FILLER_55_187
*1508 FILLER_55_19
*1485 FILLER_55_196
*1484 FILLER_55_204
*1483 FILLER_55_212
*1482 FILLER_55_220
*1481 FILLER_55_228
*1480 FILLER_55_236
*1479 FILLER_55_244
*1478 FILLER_55_252
*1477 FILLER_55_261
*1476 FILLER_55_269
*1507 FILLER_55_27
*1475 FILLER_55_277
*1474 FILLER_55_285
*1473 FILLER_55_293
*1510 FILLER_55_3
*1472 FILLER_55_301
*1471 FILLER_55_309
*1470 FILLER_55_317
*1469 FILLER_55_326
*1468 FILLER_55_334
*1467 FILLER_55_342
*1506 FILLER_55_35
*1466 FILLER_55_350
*1465 FILLER_55_358
*1464 FILLER_55_362
*1505 FILLER_55_43
*1504 FILLER_55_51
*1503 FILLER_55_59
*1502 FILLER_55_63
*1501 FILLER_55_66
*1500 FILLER_55_74
*1499 FILLER_55_82
*1498 FILLER_55_90
*1497 FILLER_55_98
*1449 FILLER_56_106
*1462 FILLER_56_11
*1448 FILLER_56_114
*1447 FILLER_56_122
*1446 FILLER_56_130
*1445 FILLER_56_138
*1444 FILLER_56_146
*1443 FILLER_56_154
*1442 FILLER_56_163
*1441 FILLER_56_171
*1440 FILLER_56_179
*1439 FILLER_56_187
*1461 FILLER_56_19
*1438 FILLER_56_195
*1437 FILLER_56_203
*1436 FILLER_56_211
*1435 FILLER_56_219
*1434 FILLER_56_228
*1433 FILLER_56_236
*1432 FILLER_56_244
*1431 FILLER_56_252
*1430 FILLER_56_260
*1429 FILLER_56_268
*1460 FILLER_56_27
*1428 FILLER_56_276
*1427 FILLER_56_284
*1426 FILLER_56_293
*1463 FILLER_56_3
*1425 FILLER_56_301
*1424 FILLER_56_309
*1459 FILLER_56_31
*1423 FILLER_56_317
*1422 FILLER_56_325
*1458 FILLER_56_33
*1421 FILLER_56_333
*1420 FILLER_56_341
*1419 FILLER_56_349
*1418 FILLER_56_358
*1417 FILLER_56_362
*1457 FILLER_56_41
*1456 FILLER_56_49
*1455 FILLER_56_57
*1454 FILLER_56_65
*1453 FILLER_56_73
*1452 FILLER_56_81
*1451 FILLER_56_89
*1450 FILLER_56_98
*1402 FILLER_57_106
*1415 FILLER_57_11
*1401 FILLER_57_114
*1400 FILLER_57_122
*1399 FILLER_57_131
*1398 FILLER_57_139
*1397 FILLER_57_147
*1396 FILLER_57_155
*1395 FILLER_57_163
*1394 FILLER_57_171
*1393 FILLER_57_179
*1392 FILLER_57_187
*1414 FILLER_57_19
*1391 FILLER_57_196
*1390 FILLER_57_204
*1389 FILLER_57_212
*1388 FILLER_57_220
*1387 FILLER_57_228
*1386 FILLER_57_236
*1385 FILLER_57_244
*1384 FILLER_57_252
*1383 FILLER_57_261
*1382 FILLER_57_269
*1413 FILLER_57_27
*1381 FILLER_57_277
*1380 FILLER_57_285
*1379 FILLER_57_293
*1416 FILLER_57_3
*1378 FILLER_57_301
*1377 FILLER_57_309
*1376 FILLER_57_317
*1375 FILLER_57_326
*1374 FILLER_57_334
*1373 FILLER_57_342
*1412 FILLER_57_35
*1372 FILLER_57_350
*1371 FILLER_57_358
*1370 FILLER_57_362
*1411 FILLER_57_43
*1410 FILLER_57_51
*1409 FILLER_57_59
*1408 FILLER_57_63
*1407 FILLER_57_66
*1406 FILLER_57_74
*1405 FILLER_57_82
*1404 FILLER_57_90
*1403 FILLER_57_98
*1355 FILLER_58_106
*1368 FILLER_58_11
*1354 FILLER_58_114
*1353 FILLER_58_122
*1352 FILLER_58_130
*1351 FILLER_58_138
*1350 FILLER_58_146
*1349 FILLER_58_154
*1348 FILLER_58_163
*1347 FILLER_58_171
*1346 FILLER_58_179
*1345 FILLER_58_187
*1367 FILLER_58_19
*1344 FILLER_58_195
*1343 FILLER_58_203
*1342 FILLER_58_211
*1341 FILLER_58_219
*1340 FILLER_58_228
*1339 FILLER_58_236
*1338 FILLER_58_244
*1337 FILLER_58_252
*1336 FILLER_58_260
*1335 FILLER_58_268
*1366 FILLER_58_27
*1334 FILLER_58_276
*1333 FILLER_58_284
*1332 FILLER_58_293
*1369 FILLER_58_3
*1331 FILLER_58_301
*1330 FILLER_58_309
*1365 FILLER_58_31
*1329 FILLER_58_317
*1328 FILLER_58_325
*1364 FILLER_58_33
*1327 FILLER_58_333
*1326 FILLER_58_341
*1325 FILLER_58_349
*1324 FILLER_58_358
*1323 FILLER_58_362
*1363 FILLER_58_41
*1362 FILLER_58_49
*1361 FILLER_58_57
*1360 FILLER_58_65
*1359 FILLER_58_73
*1358 FILLER_58_81
*1357 FILLER_58_89
*1356 FILLER_58_98
*1308 FILLER_59_106
*1321 FILLER_59_11
*1307 FILLER_59_114
*1306 FILLER_59_122
*1305 FILLER_59_131
*1304 FILLER_59_139
*1303 FILLER_59_147
*1302 FILLER_59_155
*1301 FILLER_59_163
*1300 FILLER_59_171
*1299 FILLER_59_179
*1298 FILLER_59_187
*1320 FILLER_59_19
*1297 FILLER_59_196
*1296 FILLER_59_204
*1295 FILLER_59_212
*1294 FILLER_59_220
*1293 FILLER_59_228
*1292 FILLER_59_236
*1291 FILLER_59_244
*1290 FILLER_59_252
*1289 FILLER_59_261
*1288 FILLER_59_269
*1319 FILLER_59_27
*1287 FILLER_59_277
*1286 FILLER_59_285
*1285 FILLER_59_293
*1322 FILLER_59_3
*1284 FILLER_59_301
*1283 FILLER_59_309
*1282 FILLER_59_317
*1281 FILLER_59_326
*1280 FILLER_59_334
*1279 FILLER_59_342
*1318 FILLER_59_35
*1278 FILLER_59_350
*1277 FILLER_59_358
*1276 FILLER_59_362
*1317 FILLER_59_43
*1316 FILLER_59_51
*1315 FILLER_59_59
*1314 FILLER_59_63
*1313 FILLER_59_66
*1312 FILLER_59_74
*1311 FILLER_59_82
*1310 FILLER_59_90
*1309 FILLER_59_98
*3287 FILLER_5_106
*3301 FILLER_5_11
*3286 FILLER_5_114
*3285 FILLER_5_122
*3284 FILLER_5_131
*3283 FILLER_5_139
*3282 FILLER_5_147
*3281 FILLER_5_155
*3280 FILLER_5_163
*3279 FILLER_5_171
*3278 FILLER_5_179
*3277 FILLER_5_187
*3300 FILLER_5_19
*3276 FILLER_5_196
*3275 FILLER_5_204
*3274 FILLER_5_212
*3273 FILLER_5_220
*3272 FILLER_5_228
*3271 FILLER_5_236
*3270 FILLER_5_244
*3269 FILLER_5_252
*3268 FILLER_5_261
*3267 FILLER_5_269
*3299 FILLER_5_27
*3266 FILLER_5_277
*3265 FILLER_5_285
*3264 FILLER_5_293
*3302 FILLER_5_3
*3263 FILLER_5_301
*3262 FILLER_5_309
*3261 FILLER_5_317
*3260 FILLER_5_326
*3259 FILLER_5_334
*3258 FILLER_5_342
*3298 FILLER_5_35
*3257 FILLER_5_350
*3256 FILLER_5_358
*3255 FILLER_5_362
*3297 FILLER_5_43
*3296 FILLER_5_51
*3295 FILLER_5_59
*3294 FILLER_5_63
*3293 FILLER_5_66
*3292 FILLER_5_73
*3291 FILLER_5_81
*3290 FILLER_5_83
*3289 FILLER_5_90
*3288 FILLER_5_98
*1257 FILLER_60_105
*1274 FILLER_60_11
*1256 FILLER_60_113
*1255 FILLER_60_121
*1254 FILLER_60_125
*1253 FILLER_60_127
*1252 FILLER_60_129
*1251 FILLER_60_137
*1250 FILLER_60_145
*1249 FILLER_60_153
*1248 FILLER_60_157
*1247 FILLER_60_159
*1246 FILLER_60_161
*1245 FILLER_60_169
*1244 FILLER_60_177
*1243 FILLER_60_185
*1242 FILLER_60_189
*1273 FILLER_60_19
*1241 FILLER_60_191
*1240 FILLER_60_193
*1239 FILLER_60_201
*1238 FILLER_60_209
*1237 FILLER_60_217
*1236 FILLER_60_221
*1235 FILLER_60_223
*1234 FILLER_60_225
*1233 FILLER_60_233
*1232 FILLER_60_241
*1231 FILLER_60_249
*1230 FILLER_60_253
*1229 FILLER_60_255
*1228 FILLER_60_257
*1227 FILLER_60_265
*1272 FILLER_60_27
*1226 FILLER_60_273
*1225 FILLER_60_281
*1224 FILLER_60_285
*1223 FILLER_60_287
*1222 FILLER_60_289
*1221 FILLER_60_297
*1275 FILLER_60_3
*1220 FILLER_60_305
*1271 FILLER_60_31
*1219 FILLER_60_313
*1218 FILLER_60_317
*1217 FILLER_60_319
*1216 FILLER_60_321
*1215 FILLER_60_329
*1270 FILLER_60_33
*1214 FILLER_60_337
*1213 FILLER_60_345
*1212 FILLER_60_349
*1211 FILLER_60_351
*1210 FILLER_60_353
*1209 FILLER_60_361
*1269 FILLER_60_41
*1268 FILLER_60_49
*1267 FILLER_60_57
*1266 FILLER_60_61
*1265 FILLER_60_63
*1264 FILLER_60_65
*1263 FILLER_60_73
*1262 FILLER_60_81
*1261 FILLER_60_89
*1260 FILLER_60_93
*1259 FILLER_60_95
*1258 FILLER_60_97
*3242 FILLER_6_104
*3253 FILLER_6_11
*3241 FILLER_6_112
*3240 FILLER_6_120
*3239 FILLER_6_128
*3238 FILLER_6_136
*3237 FILLER_6_144
*3236 FILLER_6_152
*3235 FILLER_6_160
*3234 FILLER_6_163
*3233 FILLER_6_171
*3232 FILLER_6_179
*3231 FILLER_6_187
*3252 FILLER_6_19
*3230 FILLER_6_195
*3229 FILLER_6_203
*3228 FILLER_6_211
*3227 FILLER_6_219
*3226 FILLER_6_228
*3225 FILLER_6_236
*3224 FILLER_6_244
*3223 FILLER_6_252
*3222 FILLER_6_260
*3221 FILLER_6_268
*3251 FILLER_6_27
*3220 FILLER_6_276
*3219 FILLER_6_284
*3218 FILLER_6_293
*3254 FILLER_6_3
*3217 FILLER_6_301
*3216 FILLER_6_309
*3250 FILLER_6_31
*3215 FILLER_6_317
*3214 FILLER_6_325
*3249 FILLER_6_33
*3213 FILLER_6_333
*3212 FILLER_6_341
*3211 FILLER_6_349
*3210 FILLER_6_358
*3209 FILLER_6_362
*3248 FILLER_6_41
*3247 FILLER_6_49
*3246 FILLER_6_57
*3245 FILLER_6_61
*3244 FILLER_6_67
*3243 FILLER_6_89
*3199 FILLER_7_109
*3207 FILLER_7_11
*3198 FILLER_7_117
*3197 FILLER_7_125
*3196 FILLER_7_129
*3195 FILLER_7_131
*3194 FILLER_7_139
*3193 FILLER_7_147
*3192 FILLER_7_155
*3191 FILLER_7_163
*3190 FILLER_7_171
*3189 FILLER_7_179
*3188 FILLER_7_187
*3206 FILLER_7_19
*3187 FILLER_7_196
*3186 FILLER_7_204
*3185 FILLER_7_212
*3184 FILLER_7_220
*3183 FILLER_7_228
*3182 FILLER_7_236
*3181 FILLER_7_244
*3180 FILLER_7_252
*3179 FILLER_7_261
*3178 FILLER_7_269
*3205 FILLER_7_27
*3177 FILLER_7_277
*3176 FILLER_7_285
*3175 FILLER_7_293
*3208 FILLER_7_3
*3174 FILLER_7_301
*3173 FILLER_7_309
*3172 FILLER_7_317
*3171 FILLER_7_326
*3170 FILLER_7_334
*3169 FILLER_7_342
*3204 FILLER_7_35
*3168 FILLER_7_350
*3167 FILLER_7_358
*3166 FILLER_7_362
*3203 FILLER_7_43
*3202 FILLER_7_51
*3201 FILLER_7_55
*3200 FILLER_7_94
*3156 FILLER_8_107
*3164 FILLER_8_11
*3155 FILLER_8_115
*3154 FILLER_8_120
*3153 FILLER_8_128
*3152 FILLER_8_136
*3151 FILLER_8_144
*3150 FILLER_8_152
*3149 FILLER_8_160
*3148 FILLER_8_163
*3147 FILLER_8_171
*3146 FILLER_8_179
*3145 FILLER_8_187
*3163 FILLER_8_19
*3144 FILLER_8_195
*3143 FILLER_8_203
*3142 FILLER_8_211
*3141 FILLER_8_219
*3140 FILLER_8_228
*3139 FILLER_8_236
*3138 FILLER_8_244
*3137 FILLER_8_252
*3136 FILLER_8_260
*3135 FILLER_8_268
*3162 FILLER_8_27
*3134 FILLER_8_276
*3133 FILLER_8_284
*3132 FILLER_8_293
*3165 FILLER_8_3
*3131 FILLER_8_301
*3130 FILLER_8_309
*3161 FILLER_8_31
*3129 FILLER_8_317
*3128 FILLER_8_325
*3160 FILLER_8_33
*3127 FILLER_8_333
*3126 FILLER_8_341
*3125 FILLER_8_349
*3124 FILLER_8_358
*3123 FILLER_8_362
*3159 FILLER_8_41
*3158 FILLER_8_49
*3157 FILLER_8_98
*3121 FILLER_9_11
*3116 FILLER_9_118
*3115 FILLER_9_124
*3114 FILLER_9_128
*3113 FILLER_9_131
*3112 FILLER_9_139
*3111 FILLER_9_147
*3110 FILLER_9_155
*3109 FILLER_9_163
*3108 FILLER_9_171
*3107 FILLER_9_179
*3106 FILLER_9_187
*3120 FILLER_9_19
*3105 FILLER_9_196
*3104 FILLER_9_204
*3103 FILLER_9_212
*3102 FILLER_9_220
*3101 FILLER_9_228
*3100 FILLER_9_236
*3099 FILLER_9_244
*3098 FILLER_9_252
*3097 FILLER_9_261
*3096 FILLER_9_269
*3119 FILLER_9_27
*3095 FILLER_9_277
*3094 FILLER_9_285
*3093 FILLER_9_293
*3122 FILLER_9_3
*3092 FILLER_9_301
*3091 FILLER_9_309
*3090 FILLER_9_317
*3089 FILLER_9_326
*3088 FILLER_9_334
*3087 FILLER_9_342
*3118 FILLER_9_35
*3086 FILLER_9_350
*3085 FILLER_9_358
*3084 FILLER_9_362
*3117 FILLER_9_43
*765 PHY_EDGE_ROW_0_Left_61
*704 PHY_EDGE_ROW_0_Right_0
*775 PHY_EDGE_ROW_10_Left_71
*714 PHY_EDGE_ROW_10_Right_10
*776 PHY_EDGE_ROW_11_Left_72
*715 PHY_EDGE_ROW_11_Right_11
*777 PHY_EDGE_ROW_12_Left_73
*716 PHY_EDGE_ROW_12_Right_12
*778 PHY_EDGE_ROW_13_Left_74
*717 PHY_EDGE_ROW_13_Right_13
*779 PHY_EDGE_ROW_14_Left_75
*718 PHY_EDGE_ROW_14_Right_14
*780 PHY_EDGE_ROW_15_Left_76
*719 PHY_EDGE_ROW_15_Right_15
*781 PHY_EDGE_ROW_16_Left_77
*720 PHY_EDGE_ROW_16_Right_16
*782 PHY_EDGE_ROW_17_Left_78
*721 PHY_EDGE_ROW_17_Right_17
*783 PHY_EDGE_ROW_18_Left_79
*722 PHY_EDGE_ROW_18_Right_18
*784 PHY_EDGE_ROW_19_Left_80
*723 PHY_EDGE_ROW_19_Right_19
*766 PHY_EDGE_ROW_1_Left_62
*705 PHY_EDGE_ROW_1_Right_1
*785 PHY_EDGE_ROW_20_Left_81
*724 PHY_EDGE_ROW_20_Right_20
*786 PHY_EDGE_ROW_21_Left_82
*725 PHY_EDGE_ROW_21_Right_21
*787 PHY_EDGE_ROW_22_Left_83
*726 PHY_EDGE_ROW_22_Right_22
*788 PHY_EDGE_ROW_23_Left_84
*727 PHY_EDGE_ROW_23_Right_23
*789 PHY_EDGE_ROW_24_Left_85
*728 PHY_EDGE_ROW_24_Right_24
*790 PHY_EDGE_ROW_25_Left_86
*729 PHY_EDGE_ROW_25_Right_25
*791 PHY_EDGE_ROW_26_Left_87
*730 PHY_EDGE_ROW_26_Right_26
*792 PHY_EDGE_ROW_27_Left_88
*731 PHY_EDGE_ROW_27_Right_27
*793 PHY_EDGE_ROW_28_Left_89
*732 PHY_EDGE_ROW_28_Right_28
*794 PHY_EDGE_ROW_29_Left_90
*733 PHY_EDGE_ROW_29_Right_29
*767 PHY_EDGE_ROW_2_Left_63
*706 PHY_EDGE_ROW_2_Right_2
*795 PHY_EDGE_ROW_30_Left_91
*734 PHY_EDGE_ROW_30_Right_30
*796 PHY_EDGE_ROW_31_Left_92
*735 PHY_EDGE_ROW_31_Right_31
*797 PHY_EDGE_ROW_32_Left_93
*736 PHY_EDGE_ROW_32_Right_32
*798 PHY_EDGE_ROW_33_Left_94
*737 PHY_EDGE_ROW_33_Right_33
*799 PHY_EDGE_ROW_34_Left_95
*738 PHY_EDGE_ROW_34_Right_34
*800 PHY_EDGE_ROW_35_Left_96
*739 PHY_EDGE_ROW_35_Right_35
*801 PHY_EDGE_ROW_36_Left_97
*740 PHY_EDGE_ROW_36_Right_36
*802 PHY_EDGE_ROW_37_Left_98
*741 PHY_EDGE_ROW_37_Right_37
*803 PHY_EDGE_ROW_38_Left_99
*742 PHY_EDGE_ROW_38_Right_38
*804 PHY_EDGE_ROW_39_Left_100
*743 PHY_EDGE_ROW_39_Right_39
*768 PHY_EDGE_ROW_3_Left_64
*707 PHY_EDGE_ROW_3_Right_3
*805 PHY_EDGE_ROW_40_Left_101
*744 PHY_EDGE_ROW_40_Right_40
*806 PHY_EDGE_ROW_41_Left_102
*745 PHY_EDGE_ROW_41_Right_41
*807 PHY_EDGE_ROW_42_Left_103
*746 PHY_EDGE_ROW_42_Right_42
*808 PHY_EDGE_ROW_43_Left_104
*747 PHY_EDGE_ROW_43_Right_43
*809 PHY_EDGE_ROW_44_Left_105
*748 PHY_EDGE_ROW_44_Right_44
*810 PHY_EDGE_ROW_45_Left_106
*749 PHY_EDGE_ROW_45_Right_45
*811 PHY_EDGE_ROW_46_Left_107
*750 PHY_EDGE_ROW_46_Right_46
*812 PHY_EDGE_ROW_47_Left_108
*751 PHY_EDGE_ROW_47_Right_47
*813 PHY_EDGE_ROW_48_Left_109
*752 PHY_EDGE_ROW_48_Right_48
*814 PHY_EDGE_ROW_49_Left_110
*753 PHY_EDGE_ROW_49_Right_49
*769 PHY_EDGE_ROW_4_Left_65
*708 PHY_EDGE_ROW_4_Right_4
*815 PHY_EDGE_ROW_50_Left_111
*754 PHY_EDGE_ROW_50_Right_50
*816 PHY_EDGE_ROW_51_Left_112
*755 PHY_EDGE_ROW_51_Right_51
*817 PHY_EDGE_ROW_52_Left_113
*756 PHY_EDGE_ROW_52_Right_52
*818 PHY_EDGE_ROW_53_Left_114
*757 PHY_EDGE_ROW_53_Right_53
*819 PHY_EDGE_ROW_54_Left_115
*758 PHY_EDGE_ROW_54_Right_54
*820 PHY_EDGE_ROW_55_Left_116
*759 PHY_EDGE_ROW_55_Right_55
*821 PHY_EDGE_ROW_56_Left_117
*760 PHY_EDGE_ROW_56_Right_56
*822 PHY_EDGE_ROW_57_Left_118
*761 PHY_EDGE_ROW_57_Right_57
*823 PHY_EDGE_ROW_58_Left_119
*762 PHY_EDGE_ROW_58_Right_58
*824 PHY_EDGE_ROW_59_Left_120
*763 PHY_EDGE_ROW_59_Right_59
*770 PHY_EDGE_ROW_5_Left_66
*709 PHY_EDGE_ROW_5_Right_5
*825 PHY_EDGE_ROW_60_Left_121
*764 PHY_EDGE_ROW_60_Right_60
*771 PHY_EDGE_ROW_6_Left_67
*710 PHY_EDGE_ROW_6_Right_6
*772 PHY_EDGE_ROW_7_Left_68
*711 PHY_EDGE_ROW_7_Right_7
*773 PHY_EDGE_ROW_8_Left_69
*712 PHY_EDGE_ROW_8_Right_8
*774 PHY_EDGE_ROW_9_Left_70
*713 PHY_EDGE_ROW_9_Right_9
*826 TAP_TAPCELL_ROW_0_122
*827 TAP_TAPCELL_ROW_0_123
*828 TAP_TAPCELL_ROW_0_124
*829 TAP_TAPCELL_ROW_0_125
*830 TAP_TAPCELL_ROW_0_126
*831 TAP_TAPCELL_ROW_0_127
*832 TAP_TAPCELL_ROW_0_128
*833 TAP_TAPCELL_ROW_0_129
*834 TAP_TAPCELL_ROW_0_130
*835 TAP_TAPCELL_ROW_0_131
*836 TAP_TAPCELL_ROW_0_132
*886 TAP_TAPCELL_ROW_10_182
*887 TAP_TAPCELL_ROW_10_183
*888 TAP_TAPCELL_ROW_10_184
*889 TAP_TAPCELL_ROW_10_185
*890 TAP_TAPCELL_ROW_10_186
*891 TAP_TAPCELL_ROW_10_187
*892 TAP_TAPCELL_ROW_11_188
*893 TAP_TAPCELL_ROW_11_189
*894 TAP_TAPCELL_ROW_11_190
*895 TAP_TAPCELL_ROW_11_191
*896 TAP_TAPCELL_ROW_11_192
*897 TAP_TAPCELL_ROW_12_193
*898 TAP_TAPCELL_ROW_12_194
*899 TAP_TAPCELL_ROW_12_195
*900 TAP_TAPCELL_ROW_12_196
*901 TAP_TAPCELL_ROW_12_197
*902 TAP_TAPCELL_ROW_12_198
*903 TAP_TAPCELL_ROW_13_199
*904 TAP_TAPCELL_ROW_13_200
*905 TAP_TAPCELL_ROW_13_201
*906 TAP_TAPCELL_ROW_13_202
*907 TAP_TAPCELL_ROW_13_203
*908 TAP_TAPCELL_ROW_14_204
*909 TAP_TAPCELL_ROW_14_205
*910 TAP_TAPCELL_ROW_14_206
*911 TAP_TAPCELL_ROW_14_207
*912 TAP_TAPCELL_ROW_14_208
*913 TAP_TAPCELL_ROW_14_209
*914 TAP_TAPCELL_ROW_15_210
*915 TAP_TAPCELL_ROW_15_211
*916 TAP_TAPCELL_ROW_15_212
*917 TAP_TAPCELL_ROW_15_213
*918 TAP_TAPCELL_ROW_15_214
*919 TAP_TAPCELL_ROW_16_215
*920 TAP_TAPCELL_ROW_16_216
*921 TAP_TAPCELL_ROW_16_217
*922 TAP_TAPCELL_ROW_16_218
*923 TAP_TAPCELL_ROW_16_219
*924 TAP_TAPCELL_ROW_16_220
*925 TAP_TAPCELL_ROW_17_221
*926 TAP_TAPCELL_ROW_17_222
*927 TAP_TAPCELL_ROW_17_223
*928 TAP_TAPCELL_ROW_17_224
*929 TAP_TAPCELL_ROW_17_225
*930 TAP_TAPCELL_ROW_18_226
*931 TAP_TAPCELL_ROW_18_227
*932 TAP_TAPCELL_ROW_18_228
*933 TAP_TAPCELL_ROW_18_229
*934 TAP_TAPCELL_ROW_18_230
*935 TAP_TAPCELL_ROW_18_231
*936 TAP_TAPCELL_ROW_19_232
*937 TAP_TAPCELL_ROW_19_233
*938 TAP_TAPCELL_ROW_19_234
*939 TAP_TAPCELL_ROW_19_235
*940 TAP_TAPCELL_ROW_19_236
*837 TAP_TAPCELL_ROW_1_133
*838 TAP_TAPCELL_ROW_1_134
*839 TAP_TAPCELL_ROW_1_135
*840 TAP_TAPCELL_ROW_1_136
*841 TAP_TAPCELL_ROW_1_137
*941 TAP_TAPCELL_ROW_20_237
*942 TAP_TAPCELL_ROW_20_238
*943 TAP_TAPCELL_ROW_20_239
*944 TAP_TAPCELL_ROW_20_240
*945 TAP_TAPCELL_ROW_20_241
*946 TAP_TAPCELL_ROW_20_242
*947 TAP_TAPCELL_ROW_21_243
*948 TAP_TAPCELL_ROW_21_244
*949 TAP_TAPCELL_ROW_21_245
*950 TAP_TAPCELL_ROW_21_246
*951 TAP_TAPCELL_ROW_21_247
*952 TAP_TAPCELL_ROW_22_248
*953 TAP_TAPCELL_ROW_22_249
*954 TAP_TAPCELL_ROW_22_250
*955 TAP_TAPCELL_ROW_22_251
*956 TAP_TAPCELL_ROW_22_252
*957 TAP_TAPCELL_ROW_22_253
*958 TAP_TAPCELL_ROW_23_254
*959 TAP_TAPCELL_ROW_23_255
*960 TAP_TAPCELL_ROW_23_256
*961 TAP_TAPCELL_ROW_23_257
*962 TAP_TAPCELL_ROW_23_258
*963 TAP_TAPCELL_ROW_24_259
*964 TAP_TAPCELL_ROW_24_260
*965 TAP_TAPCELL_ROW_24_261
*966 TAP_TAPCELL_ROW_24_262
*967 TAP_TAPCELL_ROW_24_263
*968 TAP_TAPCELL_ROW_24_264
*969 TAP_TAPCELL_ROW_25_265
*970 TAP_TAPCELL_ROW_25_266
*971 TAP_TAPCELL_ROW_25_267
*972 TAP_TAPCELL_ROW_25_268
*973 TAP_TAPCELL_ROW_25_269
*974 TAP_TAPCELL_ROW_26_270
*975 TAP_TAPCELL_ROW_26_271
*976 TAP_TAPCELL_ROW_26_272
*977 TAP_TAPCELL_ROW_26_273
*978 TAP_TAPCELL_ROW_26_274
*979 TAP_TAPCELL_ROW_26_275
*980 TAP_TAPCELL_ROW_27_276
*981 TAP_TAPCELL_ROW_27_277
*982 TAP_TAPCELL_ROW_27_278
*983 TAP_TAPCELL_ROW_27_279
*984 TAP_TAPCELL_ROW_27_280
*985 TAP_TAPCELL_ROW_28_281
*986 TAP_TAPCELL_ROW_28_282
*987 TAP_TAPCELL_ROW_28_283
*988 TAP_TAPCELL_ROW_28_284
*989 TAP_TAPCELL_ROW_28_285
*990 TAP_TAPCELL_ROW_28_286
*991 TAP_TAPCELL_ROW_29_287
*992 TAP_TAPCELL_ROW_29_288
*993 TAP_TAPCELL_ROW_29_289
*994 TAP_TAPCELL_ROW_29_290
*995 TAP_TAPCELL_ROW_29_291
*842 TAP_TAPCELL_ROW_2_138
*843 TAP_TAPCELL_ROW_2_139
*844 TAP_TAPCELL_ROW_2_140
*845 TAP_TAPCELL_ROW_2_141
*846 TAP_TAPCELL_ROW_2_142
*847 TAP_TAPCELL_ROW_2_143
*996 TAP_TAPCELL_ROW_30_292
*997 TAP_TAPCELL_ROW_30_293
*998 TAP_TAPCELL_ROW_30_294
*999 TAP_TAPCELL_ROW_30_295
*1000 TAP_TAPCELL_ROW_30_296
*1001 TAP_TAPCELL_ROW_30_297
*1002 TAP_TAPCELL_ROW_31_298
*1003 TAP_TAPCELL_ROW_31_299
*1004 TAP_TAPCELL_ROW_31_300
*1005 TAP_TAPCELL_ROW_31_301
*1006 TAP_TAPCELL_ROW_31_302
*1007 TAP_TAPCELL_ROW_32_303
*1008 TAP_TAPCELL_ROW_32_304
*1009 TAP_TAPCELL_ROW_32_305
*1010 TAP_TAPCELL_ROW_32_306
*1011 TAP_TAPCELL_ROW_32_307
*1012 TAP_TAPCELL_ROW_32_308
*1013 TAP_TAPCELL_ROW_33_309
*1014 TAP_TAPCELL_ROW_33_310
*1015 TAP_TAPCELL_ROW_33_311
*1016 TAP_TAPCELL_ROW_33_312
*1017 TAP_TAPCELL_ROW_33_313
*1018 TAP_TAPCELL_ROW_34_314
*1019 TAP_TAPCELL_ROW_34_315
*1020 TAP_TAPCELL_ROW_34_316
*1021 TAP_TAPCELL_ROW_34_317
*1022 TAP_TAPCELL_ROW_34_318
*1023 TAP_TAPCELL_ROW_34_319
*1024 TAP_TAPCELL_ROW_35_320
*1025 TAP_TAPCELL_ROW_35_321
*1026 TAP_TAPCELL_ROW_35_322
*1027 TAP_TAPCELL_ROW_35_323
*1028 TAP_TAPCELL_ROW_35_324
*1029 TAP_TAPCELL_ROW_36_325
*1030 TAP_TAPCELL_ROW_36_326
*1031 TAP_TAPCELL_ROW_36_327
*1032 TAP_TAPCELL_ROW_36_328
*1033 TAP_TAPCELL_ROW_36_329
*1034 TAP_TAPCELL_ROW_36_330
*1035 TAP_TAPCELL_ROW_37_331
*1036 TAP_TAPCELL_ROW_37_332
*1037 TAP_TAPCELL_ROW_37_333
*1038 TAP_TAPCELL_ROW_37_334
*1039 TAP_TAPCELL_ROW_37_335
*1040 TAP_TAPCELL_ROW_38_336
*1041 TAP_TAPCELL_ROW_38_337
*1042 TAP_TAPCELL_ROW_38_338
*1043 TAP_TAPCELL_ROW_38_339
*1044 TAP_TAPCELL_ROW_38_340
*1045 TAP_TAPCELL_ROW_38_341
*1046 TAP_TAPCELL_ROW_39_342
*1047 TAP_TAPCELL_ROW_39_343
*1048 TAP_TAPCELL_ROW_39_344
*1049 TAP_TAPCELL_ROW_39_345
*1050 TAP_TAPCELL_ROW_39_346
*848 TAP_TAPCELL_ROW_3_144
*849 TAP_TAPCELL_ROW_3_145
*850 TAP_TAPCELL_ROW_3_146
*851 TAP_TAPCELL_ROW_3_147
*852 TAP_TAPCELL_ROW_3_148
*1051 TAP_TAPCELL_ROW_40_347
*1052 TAP_TAPCELL_ROW_40_348
*1053 TAP_TAPCELL_ROW_40_349
*1054 TAP_TAPCELL_ROW_40_350
*1055 TAP_TAPCELL_ROW_40_351
*1056 TAP_TAPCELL_ROW_40_352
*1057 TAP_TAPCELL_ROW_41_353
*1058 TAP_TAPCELL_ROW_41_354
*1059 TAP_TAPCELL_ROW_41_355
*1060 TAP_TAPCELL_ROW_41_356
*1061 TAP_TAPCELL_ROW_41_357
*1062 TAP_TAPCELL_ROW_42_358
*1063 TAP_TAPCELL_ROW_42_359
*1064 TAP_TAPCELL_ROW_42_360
*1065 TAP_TAPCELL_ROW_42_361
*1066 TAP_TAPCELL_ROW_42_362
*1067 TAP_TAPCELL_ROW_42_363
*1068 TAP_TAPCELL_ROW_43_364
*1069 TAP_TAPCELL_ROW_43_365
*1070 TAP_TAPCELL_ROW_43_366
*1071 TAP_TAPCELL_ROW_43_367
*1072 TAP_TAPCELL_ROW_43_368
*1073 TAP_TAPCELL_ROW_44_369
*1074 TAP_TAPCELL_ROW_44_370
*1075 TAP_TAPCELL_ROW_44_371
*1076 TAP_TAPCELL_ROW_44_372
*1077 TAP_TAPCELL_ROW_44_373
*1078 TAP_TAPCELL_ROW_44_374
*1079 TAP_TAPCELL_ROW_45_375
*1080 TAP_TAPCELL_ROW_45_376
*1081 TAP_TAPCELL_ROW_45_377
*1082 TAP_TAPCELL_ROW_45_378
*1083 TAP_TAPCELL_ROW_45_379
*1084 TAP_TAPCELL_ROW_46_380
*1085 TAP_TAPCELL_ROW_46_381
*1086 TAP_TAPCELL_ROW_46_382
*1087 TAP_TAPCELL_ROW_46_383
*1088 TAP_TAPCELL_ROW_46_384
*1089 TAP_TAPCELL_ROW_46_385
*1090 TAP_TAPCELL_ROW_47_386
*1091 TAP_TAPCELL_ROW_47_387
*1092 TAP_TAPCELL_ROW_47_388
*1093 TAP_TAPCELL_ROW_47_389
*1094 TAP_TAPCELL_ROW_47_390
*1095 TAP_TAPCELL_ROW_48_391
*1096 TAP_TAPCELL_ROW_48_392
*1097 TAP_TAPCELL_ROW_48_393
*1098 TAP_TAPCELL_ROW_48_394
*1099 TAP_TAPCELL_ROW_48_395
*1100 TAP_TAPCELL_ROW_48_396
*1101 TAP_TAPCELL_ROW_49_397
*1102 TAP_TAPCELL_ROW_49_398
*1103 TAP_TAPCELL_ROW_49_399
*1104 TAP_TAPCELL_ROW_49_400
*1105 TAP_TAPCELL_ROW_49_401
*853 TAP_TAPCELL_ROW_4_149
*854 TAP_TAPCELL_ROW_4_150
*855 TAP_TAPCELL_ROW_4_151
*856 TAP_TAPCELL_ROW_4_152
*857 TAP_TAPCELL_ROW_4_153
*858 TAP_TAPCELL_ROW_4_154
*1106 TAP_TAPCELL_ROW_50_402
*1107 TAP_TAPCELL_ROW_50_403
*1108 TAP_TAPCELL_ROW_50_404
*1109 TAP_TAPCELL_ROW_50_405
*1110 TAP_TAPCELL_ROW_50_406
*1111 TAP_TAPCELL_ROW_50_407
*1112 TAP_TAPCELL_ROW_51_408
*1113 TAP_TAPCELL_ROW_51_409
*1114 TAP_TAPCELL_ROW_51_410
*1115 TAP_TAPCELL_ROW_51_411
*1116 TAP_TAPCELL_ROW_51_412
*1117 TAP_TAPCELL_ROW_52_413
*1118 TAP_TAPCELL_ROW_52_414
*1119 TAP_TAPCELL_ROW_52_415
*1120 TAP_TAPCELL_ROW_52_416
*1121 TAP_TAPCELL_ROW_52_417
*1122 TAP_TAPCELL_ROW_52_418
*1123 TAP_TAPCELL_ROW_53_419
*1124 TAP_TAPCELL_ROW_53_420
*1125 TAP_TAPCELL_ROW_53_421
*1126 TAP_TAPCELL_ROW_53_422
*1127 TAP_TAPCELL_ROW_53_423
*1128 TAP_TAPCELL_ROW_54_424
*1129 TAP_TAPCELL_ROW_54_425
*1130 TAP_TAPCELL_ROW_54_426
*1131 TAP_TAPCELL_ROW_54_427
*1132 TAP_TAPCELL_ROW_54_428
*1133 TAP_TAPCELL_ROW_54_429
*1134 TAP_TAPCELL_ROW_55_430
*1135 TAP_TAPCELL_ROW_55_431
*1136 TAP_TAPCELL_ROW_55_432
*1137 TAP_TAPCELL_ROW_55_433
*1138 TAP_TAPCELL_ROW_55_434
*1139 TAP_TAPCELL_ROW_56_435
*1140 TAP_TAPCELL_ROW_56_436
*1141 TAP_TAPCELL_ROW_56_437
*1142 TAP_TAPCELL_ROW_56_438
*1143 TAP_TAPCELL_ROW_56_439
*1144 TAP_TAPCELL_ROW_56_440
*1145 TAP_TAPCELL_ROW_57_441
*1146 TAP_TAPCELL_ROW_57_442
*1147 TAP_TAPCELL_ROW_57_443
*1148 TAP_TAPCELL_ROW_57_444
*1149 TAP_TAPCELL_ROW_57_445
*1150 TAP_TAPCELL_ROW_58_446
*1151 TAP_TAPCELL_ROW_58_447
*1152 TAP_TAPCELL_ROW_58_448
*1153 TAP_TAPCELL_ROW_58_449
*1154 TAP_TAPCELL_ROW_58_450
*1155 TAP_TAPCELL_ROW_58_451
*1156 TAP_TAPCELL_ROW_59_452
*1157 TAP_TAPCELL_ROW_59_453
*1158 TAP_TAPCELL_ROW_59_454
*1159 TAP_TAPCELL_ROW_59_455
*1160 TAP_TAPCELL_ROW_59_456
*859 TAP_TAPCELL_ROW_5_155
*860 TAP_TAPCELL_ROW_5_156
*861 TAP_TAPCELL_ROW_5_157
*862 TAP_TAPCELL_ROW_5_158
*863 TAP_TAPCELL_ROW_5_159
*1161 TAP_TAPCELL_ROW_60_457
*1162 TAP_TAPCELL_ROW_60_458
*1163 TAP_TAPCELL_ROW_60_459
*1164 TAP_TAPCELL_ROW_60_460
*1165 TAP_TAPCELL_ROW_60_461
*1166 TAP_TAPCELL_ROW_60_462
*1167 TAP_TAPCELL_ROW_60_463
*1168 TAP_TAPCELL_ROW_60_464
*1169 TAP_TAPCELL_ROW_60_465
*1170 TAP_TAPCELL_ROW_60_466
*1171 TAP_TAPCELL_ROW_60_467
*864 TAP_TAPCELL_ROW_6_160
*865 TAP_TAPCELL_ROW_6_161
*866 TAP_TAPCELL_ROW_6_162
*867 TAP_TAPCELL_ROW_6_163
*868 TAP_TAPCELL_ROW_6_164
*869 TAP_TAPCELL_ROW_6_165
*870 TAP_TAPCELL_ROW_7_166
*871 TAP_TAPCELL_ROW_7_167
*872 TAP_TAPCELL_ROW_7_168
*873 TAP_TAPCELL_ROW_7_169
*874 TAP_TAPCELL_ROW_7_170
*875 TAP_TAPCELL_ROW_8_171
*876 TAP_TAPCELL_ROW_8_172
*877 TAP_TAPCELL_ROW_8_173
*878 TAP_TAPCELL_ROW_8_174
*879 TAP_TAPCELL_ROW_8_175
*880 TAP_TAPCELL_ROW_8_176
*881 TAP_TAPCELL_ROW_9_177
*882 TAP_TAPCELL_ROW_9_178
*883 TAP_TAPCELL_ROW_9_179
*884 TAP_TAPCELL_ROW_9_180
*885 TAP_TAPCELL_ROW_9_181
*369 _180_
*370 _181_
*371 _182_
*372 _183_
*373 _184_
*374 _185_
*375 _186_
*376 _187_
*377 _188_
*378 _189_
*379 _190_
*380 _191_
*381 _192_
*382 _193_
*383 _194_
*384 _195_
*385 _196_
*386 _197_
*387 _198_
*388 _199_
*389 _200_
*390 _201_
*391 _202_
*392 _203_
*393 _204_
*394 _205_
*395 _206_
*396 _207_
*397 _208_
*398 _209_
*399 _210_
*400 _211_
*401 _212_
*402 _213_
*403 _214_
*404 _215_
*405 _216_
*406 _217_
*407 _218_
*408 _219_
*409 _220_
*410 _221_
*411 _222_
*412 _223_
*413 _224_
*414 _225_
*415 _226_
*416 _227_
*417 _228_
*418 _229_
*419 _230_
*420 _231_
*421 _232_
*422 _233_
*423 _234_
*424 _235_
*425 _236_
*426 _237_
*427 _238_
*428 _239_
*429 _240_
*430 _241_
*431 _242_
*432 _243_
*433 _244_
*434 _245_
*435 _246_
*436 _247_
*437 _248_
*438 _249_
*439 _250_
*440 _251_
*441 _252_
*442 _253_
*443 _254_
*444 _255_
*445 _256_
*446 _257_
*447 _258_
*448 _259_
*449 _260_
*450 _261_
*451 _262_
*452 _263_
*453 _264_
*454 _265_
*455 _266_
*456 _267_
*457 _268_
*458 _269_
*459 _270_
*460 _271_
*461 _272_
*462 _273_
*463 _274_
*464 _275_
*465 _276_
*466 _277_
*467 _278_
*468 _279_
*469 _280_
*470 _281_
*471 _282_
*472 _283_
*473 _284_
*474 _285_
*475 _286_
*476 _287_
*477 _288_
*478 _289_
*479 _290_
*480 _291_
*481 _292_
*482 _293_
*483 _294_
*484 _295_
*485 _296_
*486 _297_
*487 _298_
*488 _299_
*489 _300_
*490 _301_
*491 _302_
*492 _303_
*493 _304_
*494 _305_
*495 _306_
*496 _307_
*497 _308_
*498 _309_
*499 _310_
*500 _311_
*501 _312_
*502 _313_
*503 _314_
*504 _315_
*505 _316_
*506 _317_
*507 _318_
*508 _319_
*509 _320_
*510 _321_
*511 _322_
*512 _323_
*513 _324_
*514 _325_
*515 _326_
*516 _327_
*517 _328_
*518 _329_
*519 _330_
*520 _331_
*521 _332_
*522 _333_
*523 _334_
*524 _335_
*525 _336_
*526 _337_
*527 _338_
*528 _339_
*529 _340_
*530 _341_
*531 _342_
*532 _343_
*533 _344_
*534 _345_
*535 _346_
*536 _347_
*537 _348_
*538 _349_
*539 _350_
*540 _351_
*541 _352_
*542 _353_
*543 _354_
*544 _355_
*545 _356_
*546 _357_
*547 _358_
*548 _359_
*549 _360_
*550 _361_
*551 _362_
*552 _363_
*553 _364_
*554 _365_
*555 _366_
*556 _367_
*557 _368_
*558 _369_
*559 _370_
*560 _371_
*561 _372_
*562 _373_
*563 _374_
*564 _375_
*565 _376_
*566 _377_
*567 _378_
*568 _379_
*569 _380_
*570 _381_
*571 _382_
*572 _383_
*573 _384_
*574 _385_
*575 _386_
*576 _387_
*577 _388_
*578 _389_
*579 _390_
*580 _391_
*581 _392_
*582 _393_
*583 _394_
*584 _395_
*585 _396_
*586 _397_
*587 _398_
*588 _399_
*589 _400_
*590 _401_
*591 _402_
*592 _403_
*593 _404_
*594 _405_
*595 _406_
*596 _407_
*597 _408_
*598 _409_
*599 _410_
*600 _411_
*601 _412_
*602 _413_
*603 _414_
*604 _415_
*605 _416_
*606 _417_
*607 _418_
*608 _419_
*609 _420_
*610 _421_
*611 _422_
*612 _423_
*613 _424_
*614 _425_
*615 _426_
*616 _427_
*617 _428_
*618 _429_
*619 _430_
*620 _431_
*621 _432_
*622 _433_
*623 _434_
*624 _435_
*625 _436_
*626 _437_
*627 _438_
*628 _439_
*629 _440_
*630 _441_
*631 _442_
*632 _443_
*633 _444_
*634 _445_
*635 _446_
*636 _447_
*637 _448_
*638 _449_
*639 _450_
*640 _451_
*641 _452_
*642 _453_
*643 _454_
*644 _455_
*645 _456_
*646 _457_
*647 _458_
*648 _459_
*649 _460_
*650 _461_
*651 _462_
*652 _463_
*653 _464_
*654 _465_
*655 _466_
*656 _467_
*657 _468_
*658 _469_
*659 _470_
*660 _471_
*661 _472_
*662 _473_
*663 _474_
*664 _475_
*665 _476_
*666 _477_
*667 _478_
*668 _479_
*669 _480_
*670 _481_
*671 _482_
*672 _483_
*673 _484_
*674 _485_
*675 _486_
*676 _487_
*677 _488_
*678 _489_
*679 _490_
*680 _491_
*681 _492_
*682 _493_
*683 _494_
*684 _495_
*685 _496_
*686 _497_
*687 _498_
*688 _499_
*689 _500_
*690 _501_
*691 _502_
*692 _503_
*693 _504_
*694 _505_
*695 _506_
*696 _507_
*697 _508_
*698 _509_
*699 _510_
*700 _511_
*701 _512_
*702 _513_
*703 _514_
*1174 clkbuf_0_clk
*1175 clkbuf_4_0_0_clk
*1185 clkbuf_4_10_0_clk
*1186 clkbuf_4_11_0_clk
*1187 clkbuf_4_12_0_clk
*1188 clkbuf_4_13_0_clk
*1189 clkbuf_4_14_0_clk
*1190 clkbuf_4_15_0_clk
*1176 clkbuf_4_1_0_clk
*1177 clkbuf_4_2_0_clk
*1178 clkbuf_4_3_0_clk
*1179 clkbuf_4_4_0_clk
*1180 clkbuf_4_5_0_clk
*1181 clkbuf_4_6_0_clk
*1182 clkbuf_4_7_0_clk
*1183 clkbuf_4_8_0_clk
*1184 clkbuf_4_9_0_clk
*1191 clkload0
*1192 clkload1
*1201 clkload10
*1202 clkload11
*1203 clkload12
*1204 clkload13
*1205 clkload14
*1193 clkload2
*1194 clkload3
*1195 clkload4
*1196 clkload5
*1197 clkload6
*1198 clkload7
*1199 clkload8
*1200 clkload9
*1172 place1
*1173 place2

*PORTS
clk I
din[0] I
din[1] I
din[2] I
din[3] I
din[4] I
din[5] I
din[6] I
din[7] I
dout[0] O
dout[1] O
dout[2] O
dout[3] O
dout[4] O
dout[5] O
dout[6] O
dout[7] O
empty O
full O
rd_en I
rst I
wr_en I

*D_NET *1 0.00241732
*CONN
*I *472:A2 I *D sky130_fd_sc_hd__a21oi_1
*I *470:Y O *D sky130_fd_sc_hd__o21ai_0
*CAP
1 *472:A2 0.000748543
2 *470:Y 0.000748543
3 *472:A2 *445:A2 6.65803e-05
4 *472:A2 *470:A2 0.00068726
5 *472:A2 *64:10 0.0001214
6 *472:A2 *182:14 0
7 *472:A2 *183:40 4.49912e-05
*RES
1 *470:Y *472:A2 43.0743 
*END

*D_NET *2 0.0258609
*CONN
*I *395:B I *D sky130_fd_sc_hd__nand3_1
*I *378:D_N I *D sky130_fd_sc_hd__or4b_1
*I *377:Y O *D sky130_fd_sc_hd__xnor2_1
*CAP
1 *395:B 0.00310649
2 *378:D_N 0.00124562
3 *377:Y 0.00177288
4 *2:14 0.00612499
5 *378:D_N *379:B 0.000511183
6 *378:D_N *485:B1_N 0.000511492
7 *378:D_N *1195:A 2.16355e-05
8 *378:D_N *3:20 1.97873e-06
9 *378:D_N *11:60 0.000179929
10 *378:D_N *56:28 0.000466352
11 *378:D_N *71:24 6.53279e-05
12 *378:D_N *186:28 8.3051e-06
13 *378:D_N *215:40 0.000111286
14 *378:D_N *261:34 0.000365081
15 *378:D_N *279:38 0.000411166
16 *378:D_N *281:32 0.000113478
17 *378:D_N *298:30 4.68065e-05
18 *378:D_N *357:52 5.04829e-06
19 *395:B *371:A 4.72168e-05
20 *395:B *379:B 0.000739845
21 *395:B *11:8 0
22 *395:B *11:38 0.000303354
23 *395:B *44:30 0.000514497
24 *395:B *102:26 0
25 *395:B *123:32 0.000118044
26 *395:B *158:10 8.29012e-05
27 *395:B *170:41 0.000778315
28 *395:B *170:47 0.000833814
29 *395:B *181:10 4.15685e-05
30 *395:B *248:34 0
31 *395:B *279:38 0.000181015
32 *395:B *281:32 0.00275696
33 *395:B *340:50 0.000613647
34 *2:14 *377:A 0.00158574
35 *2:14 *379:A 1.07881e-05
36 *2:14 *13:35 1.60578e-06
37 *2:14 *82:111 2.01653e-05
38 *2:14 *155:44 0.00156097
39 *2:14 *158:101 9.73142e-05
40 *2:14 *158:107 3.79121e-05
41 *2:14 *167:28 2.02035e-05
42 *2:14 *167:117 2.11205e-06
43 *2:14 *222:24 0.000202933
44 *2:14 *332:32 9.1402e-05
45 *2:14 *340:12 6.05225e-05
46 *2:14 *344:22 7.71295e-06
47 *2:14 *351:127 8.12564e-05
*RES
1 *377:Y *2:14 22.5507 
2 *2:14 *378:D_N 25.4425 
3 *2:14 *395:B 39.8679 
*END

*D_NET *3 0.027226
*CONN
*I *392:A I *D sky130_fd_sc_hd__nor2_1
*I *381:A I *D sky130_fd_sc_hd__nor2_1
*I *382:A1 I *D sky130_fd_sc_hd__o21a_1
*I *393:A1 I *D sky130_fd_sc_hd__o21a_1
*I *394:A1 I *D sky130_fd_sc_hd__o2111ai_1
*I *383:A1 I *D sky130_fd_sc_hd__o211a_1
*I *500:A1 I *D sky130_fd_sc_hd__o2111ai_1
*I *378:X O *D sky130_fd_sc_hd__or4b_1
*CAP
1 *392:A 0.000272463
2 *381:A 0
3 *382:A1 7.40512e-05
4 *393:A1 0
5 *394:A1 3.76901e-05
6 *383:A1 0.000235774
7 *500:A1 0
8 *378:X 1.23819e-05
9 *3:93 0.00412571
10 *3:46 0.00130637
11 *3:32 0.00123225
12 *3:24 0.000518799
13 *3:20 0.00159279
14 *3:10 0.00498952
15 *382:A1 *527:B 0.000101605
16 *382:A1 *4:47 5.88009e-05
17 *382:A1 *108:26 2.02035e-05
18 *382:A1 *157:58 1.26179e-05
19 *383:A1 *383:A2 0.000516425
20 *383:A1 *568:CLK 1.61631e-05
21 *383:A1 *4:57 2.6046e-05
22 *383:A1 *80:8 0.0003841
23 *392:A *392:B 1.03594e-05
24 *392:A *205:12 9.23182e-05
25 *392:A *205:16 0.000242326
26 *394:A1 *394:B1 5.04829e-06
27 *394:A1 *4:47 1.1718e-05
28 *394:A1 *4:57 7.92757e-06
29 *394:A1 *118:57 3.8122e-05
30 *3:10 *38:16 1.91246e-05
31 *3:10 *350:545 4.19401e-06
32 *3:20 *378:A 3.52699e-05
33 *3:20 *56:28 0.00011255
34 *3:20 *117:12 0.000586521
35 *3:20 *166:57 1.20036e-05
36 *3:20 *186:28 4.64055e-05
37 *3:20 *215:40 1.2856e-05
38 *3:20 *257:38 7.43516e-05
39 *3:20 *260:26 5.68714e-05
40 *3:20 *261:34 7.86825e-06
41 *3:20 *343:138 1.99966e-05
42 *3:24 *393:A2 2.32825e-05
43 *3:24 *602:DE 2.90638e-06
44 *3:24 *335:19 0
45 *3:32 *393:A2 3.01984e-05
46 *3:32 *118:57 0.000107968
47 *3:32 *151:12 0.000156376
48 *3:46 *394:B1 2.16355e-05
49 *3:46 *394:D1 0.000650687
50 *3:46 *668:D 9.67837e-05
51 *3:46 *688:D 0.000185506
52 *3:46 *4:57 0.00194766
53 *3:46 *80:8 0.000299553
54 *3:46 *80:78 1.26179e-05
55 *3:46 *104:81 0
56 *3:46 *109:14 0.00056189
57 *3:46 *118:57 3.07848e-05
58 *3:93 dout[1] 0.000521638
59 *3:93 *378:A 0.000399354
60 *3:93 *381:B 0.000149552
61 *3:93 *421:B2 0.0024093
62 *3:93 *457:A2 7.61596e-06
63 *3:93 *23:26 0.000688479
64 *3:93 *56:28 0.000111689
65 *3:93 *75:30 3.41074e-05
66 *3:93 *131:38 0
67 *3:93 *183:40 0.000679694
68 *3:93 *205:16 4.51176e-05
69 *3:93 *215:40 0.000211819
70 *3:93 *255:32 0
71 *3:93 *257:38 0.000168506
72 *3:93 *260:26 0.000107154
73 *3:93 *266:28 0.000182363
74 *3:93 *304:30 4.08205e-05
75 *3:93 *350:414 3.69782e-05
76 *3:93 *350:442 0.000372383
77 *378:D_N *3:20 1.97873e-06
*RES
1 *378:X *3:10 17.4965 
2 *3:10 *3:20 16.4353 
3 *3:20 *3:24 6.00419 
4 *3:24 *3:32 12.8011 
5 *3:32 *3:46 46.2217 
6 *3:46 *500:A1 13.7491 
7 *3:46 *383:A1 22.812 
8 *3:32 *394:A1 10.5271 
9 *3:24 *393:A1 9.24915 
10 *3:20 *382:A1 20.4964 
11 *3:10 *3:93 15.1506 
12 *3:93 *381:A 13.7491 
13 *3:93 *392:A 22.1913 
*END

*D_NET *4 0.0277872
*CONN
*I *382:A2 I *D sky130_fd_sc_hd__o21a_1
*I *394:A2 I *D sky130_fd_sc_hd__o2111ai_1
*I *383:A2 I *D sky130_fd_sc_hd__o211a_1
*I *500:A2 I *D sky130_fd_sc_hd__o2111ai_1
*I *381:B I *D sky130_fd_sc_hd__nor2_1
*I *379:Y O *D sky130_fd_sc_hd__xnor2_1
*CAP
1 *382:A2 0
2 *394:A2 0
3 *383:A2 0.000393884
4 *500:A2 0
5 *381:B 0.000581324
6 *379:Y 0.000768755
7 *4:57 0.00158163
8 *4:47 0.00169548
9 *4:39 0.00116316
10 *4:26 0.0040127
11 *4:12 0.00485556
12 *383:A2 *383:C1 1.03434e-05
13 *383:A2 *538:A1 1.41976e-05
14 *383:A2 *538:A2 7.00991e-05
15 *383:A2 *563:CLK 3.92275e-05
16 *383:A2 *568:CLK 1.92172e-05
17 *383:A2 *80:8 7.77309e-06
18 *383:A2 *97:16 4.04447e-05
19 *383:A2 *104:14 0
20 *383:A2 *123:32 8.62625e-06
21 *383:A2 *173:20 2.24484e-05
22 *383:A2 *355:140 9.22013e-06
23 *4:12 *469:A0 6.16595e-06
24 *4:12 *566:DE 0.000136838
25 *4:12 *13:62 5.34805e-06
26 *4:12 *93:30 6.19995e-05
27 *4:12 *119:48 0.000336825
28 *4:12 *166:57 0
29 *4:12 *169:8 0
30 *4:12 *343:167 6.4674e-06
31 *4:12 *356:16 0.000160793
32 *4:26 *449:A0 5.47777e-05
33 *4:26 *475:A2 0.000230644
34 *4:26 *475:B1 5.96422e-06
35 *4:26 *11:60 0.000197821
36 *4:26 *54:22 0.000803227
37 *4:26 *67:20 0.000114584
38 *4:26 *75:30 0.00161323
39 *4:26 *132:22 5.49828e-05
40 *4:26 *231:28 0.000310212
41 *4:26 *257:38 0.00244244
42 *4:26 *266:42 2.53892e-05
43 *4:26 *282:40 4.79809e-06
44 *4:26 *304:30 0.000458469
45 *4:26 *306:28 0.000176727
46 *4:26 *327:36 0.000268572
47 *4:26 *350:414 2.18809e-05
48 *4:39 *566:DE 1.83795e-06
49 *4:39 *670:DE 9.88016e-06
50 *4:39 *157:58 5.90417e-05
51 *4:39 *166:57 0
52 *4:39 *356:16 8.58374e-05
53 *4:47 *527:B 7.79202e-05
54 *4:47 *616:D 8.70483e-06
55 *4:47 *1195:A 2.41274e-06
56 *4:47 *118:28 3.84563e-05
57 *4:47 *118:57 1.03401e-05
58 *4:47 *157:48 3.77568e-05
59 *4:47 *157:58 0.000153658
60 *4:47 *164:20 7.87636e-05
61 *4:57 *394:B1 6.51628e-05
62 *4:57 *394:D1 0.000183323
63 *4:57 *514:A 1.17185e-05
64 *4:57 *688:CLK 0.000394843
65 *4:57 *10:16 0.000200794
66 *4:57 *104:81 0
67 *4:57 *173:20 0.000172691
68 *4:57 *355:14 0.0006636
69 *4:57 *355:140 2.00832e-05
70 *382:A1 *4:47 5.88009e-05
71 *383:A1 *383:A2 0.000516425
72 *383:A1 *4:57 2.6046e-05
73 *394:A1 *4:47 1.1718e-05
74 *394:A1 *4:57 7.92757e-06
75 *3:46 *4:57 0.00194766
76 *3:93 *381:B 0.000149552
*RES
1 *379:Y *4:12 31.4966 
2 *4:12 *4:26 48.0734 
3 *4:26 *381:B 23.0298 
4 *4:12 *4:39 14.6122 
5 *4:39 *4:47 19.866 
6 *4:47 *4:57 46.1735 
7 *4:57 *500:A2 13.7491 
8 *4:57 *383:A2 24.4999 
9 *4:47 *394:A2 9.24915 
10 *4:39 *382:A2 9.24915 
*END

*D_NET *5 0.0286705
*CONN
*I *392:B I *D sky130_fd_sc_hd__nor2_1
*I *393:A2 I *D sky130_fd_sc_hd__o21a_1
*I *380:X O *D sky130_fd_sc_hd__xor2_1
*CAP
1 *392:B 0.000899118
2 *393:A2 0.00484141
3 *380:X 0.00192504
4 *5:24 0.00766556
5 *392:B *197:47 0.000165394
6 *393:A2 *394:B1 3.66916e-05
7 *393:A2 *455:A1 0.000114332
8 *393:A2 *465:A3 0.00138205
9 *393:A2 *486:A1 1.80143e-06
10 *393:A2 *529:A 0.000191401
11 *393:A2 *57:26 0.00435277
12 *393:A2 *118:57 3.83794e-05
13 *393:A2 *126:20 0
14 *393:A2 *131:38 0.000126896
15 *393:A2 *136:20 0
16 *393:A2 *149:22 0.000131355
17 *393:A2 *151:12 1.24195e-05
18 *393:A2 *151:14 5.01721e-05
19 *393:A2 *160:37 9.63687e-06
20 *393:A2 *162:12 7.00698e-05
21 *393:A2 *162:35 3.5211e-05
22 *393:A2 *170:133 3.66058e-05
23 *393:A2 *180:60 0.000138866
24 *393:A2 *231:28 8.26385e-06
25 *393:A2 *233:34 0.00111432
26 *393:A2 *271:26 6.47236e-05
27 *393:A2 *299:26 0.000523621
28 *393:A2 *306:28 0.00118422
29 *393:A2 *335:19 6.63012e-05
30 *393:A2 *350:373 0.000498142
31 *393:A2 *350:545 0.000274166
32 *393:A2 *358:16 7.85262e-05
33 *5:24 *416:A2 1.79334e-05
34 *5:24 *545:B1 0.000211559
35 *5:24 *551:A1 0.000249843
36 *5:24 *42:12 2.3401e-05
37 *5:24 *88:32 1.76258e-06
38 *5:24 *89:12 0.000160192
39 *5:24 *131:38 0.000180178
40 *5:24 *182:189 0.000707954
41 *5:24 *201:22 0.000466315
42 *5:24 *228:40 0.000281475
43 *5:24 *350:310 0.000253024
44 *5:24 *351:528 1.55124e-05
45 *392:A *392:B 1.03594e-05
46 *3:24 *393:A2 2.32825e-05
47 *3:32 *393:A2 3.01984e-05
*RES
1 *380:X *5:24 34.3505 
2 *5:24 *393:A2 43.5234 
3 *5:24 *392:B 22.0649 
*END

*D_NET *6 0.0248166
*CONN
*I *510:A2 I *D sky130_fd_sc_hd__a21oi_1
*I *507:A2 I *D sky130_fd_sc_hd__a21o_1
*I *509:A2 I *D sky130_fd_sc_hd__o21ai_0
*I *384:B I *D sky130_fd_sc_hd__nand2_1
*I *382:X O *D sky130_fd_sc_hd__o21a_1
*CAP
1 *510:A2 0.000174887
2 *507:A2 0
3 *509:A2 4.12164e-05
4 *384:B 0.000686184
5 *382:X 6.55914e-05
6 *6:87 0.00135269
7 *6:69 0.00321687
8 *6:16 0.0011227
9 *6:10 0.000649334
10 *6:8 0.0023587
11 *384:B *503:B 6.27782e-05
12 *384:B *509:A1 0
13 *384:B *513:B 0
14 *384:B *8:6 0.00139538
15 *384:B *78:26 0
16 *384:B *103:30 1.39717e-06
17 *384:B *107:24 0.000196907
18 *384:B *111:24 4.19401e-06
19 *384:B *180:18 0
20 *509:A2 *509:A1 4.94594e-05
21 *509:A2 *116:8 1.24886e-05
22 *510:A2 *510:A1 6.92705e-05
23 *510:A2 *600:CLK 7.08059e-05
24 *510:A2 *80:58 0.000145984
25 *510:A2 *116:64 0.000784901
26 *510:A2 *117:58 0.000682898
27 *510:A2 *153:22 6.75138e-05
28 *6:8 *506:B1 0.000215846
29 *6:8 *157:58 0.000111708
30 *6:8 *164:20 2.78496e-05
31 *6:10 *527:B 0.000142962
32 *6:10 *557:A2 4.69495e-06
33 *6:10 *691:DE 0
34 *6:10 *108:26 2.69685e-05
35 *6:10 *175:16 0
36 *6:10 *343:167 0.000136163
37 *6:16 *469:A2 2.26985e-05
38 *6:16 *509:A1 0.00100154
39 *6:16 *691:DE 0
40 *6:16 *166:57 0
41 *6:16 *343:167 1.07248e-05
42 *6:69 *428:A1 7.48998e-06
43 *6:69 *527:A 4.43515e-05
44 *6:69 *527:B 1.5714e-05
45 *6:69 *557:A1 0.00218122
46 *6:69 *636:CLK 8.67409e-05
47 *6:69 *103:30 0.00245569
48 *6:69 *108:26 8.90345e-05
49 *6:69 *118:20 0
50 *6:69 *146:26 0.000116125
51 *6:69 *155:146 0.000800791
52 *6:69 *155:157 0.000496802
53 *6:69 *161:16 7.61596e-06
54 *6:69 *164:30 1.28959e-05
55 *6:69 *214:18 6.21462e-05
56 *6:69 *253:20 9.65665e-05
57 *6:69 *272:18 0.00013761
58 *6:69 *328:32 2.74259e-05
59 *6:69 *337:26 5.97745e-05
60 *6:69 *346:14 5.04829e-06
61 *6:69 *347:10 4.51062e-05
62 *6:69 *362:58 2.42576e-05
63 *6:69 *362:60 5.02459e-05
64 *6:69 *362:62 8.25019e-05
65 *6:69 *362:64 3.88655e-06
66 *6:87 *458:S0 0
67 *6:87 *522:B 0.000245571
68 *6:87 *570:CLK 7.91258e-05
69 *6:87 *654:DE 0.00025015
70 *6:87 *80:39 6.19578e-05
71 *6:87 *103:30 0.000113729
72 *6:87 *118:18 0.000203833
73 *6:87 *153:22 3.71926e-05
74 *6:87 *155:157 0.000201965
75 *6:87 *155:198 0.00058893
76 *6:87 *157:20 0.000121697
77 *6:87 *181:10 0.000139609
78 *6:87 *181:20 0.000199102
79 *6:87 *181:55 0.000406311
80 *6:87 *183:16 0.000128306
81 *6:87 *344:84 1.40496e-05
82 *6:87 *346:109 0.00019035
83 *6:87 *351:46 1.23804e-05
*RES
1 *382:X *6:8 16.691 
2 *6:8 *6:10 6.39977 
3 *6:10 *6:16 18.8274 
4 *6:16 *384:B 40.9253 
5 *6:16 *509:A2 10.5271 
6 *6:10 *507:A2 13.7491 
7 *6:8 *6:69 49.8748 
8 *6:69 *6:87 45.8552 
9 *6:87 *510:A2 26.1433 
*END

*D_NET *8 0.0118564
*CONN
*I *528:B1 I *D sky130_fd_sc_hd__a21oi_1
*I *535:A I *D sky130_fd_sc_hd__nor3_1
*I *384:Y O *D sky130_fd_sc_hd__nand2_1
*CAP
1 *528:B1 0
2 *535:A 0.000358003
3 *384:Y 0.00239048
4 *8:18 0.00108991
5 *8:6 0.00312238
6 *535:A *527:A 9.12416e-06
7 *535:A *528:A2 4.31485e-06
8 *535:A *535:C 6.08467e-05
9 *535:A *606:CLK 6.23875e-05
10 *535:A *115:43 0.000396002
11 *535:A *116:27 6.7671e-06
12 *535:A *181:63 0.000101411
13 *8:6 *107:24 0.000176299
14 *8:18 *502:B1 7.06125e-05
15 *8:18 *527:A 0.000695366
16 *8:18 *528:A2 2.53145e-06
17 *8:18 *22:32 0.00145633
18 *8:18 *120:12 1.78942e-05
19 *8:18 *342:15 0.00044037
20 *384:B *8:6 0.00139538
*RES
1 *384:Y *8:6 46.5764 
2 *8:6 *8:18 42.611 
3 *8:18 *535:A 28.9758 
4 *8:18 *528:B1 9.24915 
*END

*D_NET *10 0.0231096
*CONN
*I *515:A I *D sky130_fd_sc_hd__nand2_1
*I *396:B I *D sky130_fd_sc_hd__xnor2_1
*I *519:SLEEP I *D sky130_fd_sc_hd__lpflow_inputiso1p_1
*I *394:Y O *D sky130_fd_sc_hd__o2111ai_1
*CAP
1 *515:A 0
2 *396:B 0.00100854
3 *519:SLEEP 0.00127182
4 *394:Y 0.00043587
5 *10:68 0.00137038
6 *10:47 0.0042335
7 *10:16 0.00356227
8 *396:B *595:DE 8.83898e-06
9 *396:B *651:D 2.74127e-05
10 *396:B *651:DE 2.7487e-05
11 *396:B *350:10 0.000245341
12 *519:SLEEP *507:B1 9.98361e-05
13 *519:SLEEP *11:60 1.27831e-06
14 *519:SLEEP *117:12 0.000516623
15 *519:SLEEP *149:22 3.63593e-05
16 *519:SLEEP *157:48 0.000100578
17 *519:SLEEP *160:16 0.000773248
18 *519:SLEEP *160:37 5.84377e-06
19 *519:SLEEP *257:38 6.63281e-05
20 *519:SLEEP *261:34 3.58821e-05
21 *519:SLEEP *343:167 2.77419e-05
22 *519:SLEEP *344:108 8.60423e-05
23 *10:16 *394:B1 3.46905e-05
24 *10:16 *394:D1 0.000203595
25 *10:16 *117:37 0.000143103
26 *10:16 *157:48 0
27 *10:16 *160:16 5.05963e-05
28 *10:16 *162:12 0.000516045
29 *10:47 *557:A1 0.00164199
30 *10:47 *115:35 0
31 *10:47 *119:24 0.000187071
32 *10:47 *140:36 0.000167099
33 *10:47 *153:22 0.0021517
34 *10:47 *257:38 5.01921e-05
35 *10:47 *309:32 0.000447733
36 *10:47 *324:22 0.000113987
37 *10:47 *344:108 0.00104258
38 *10:68 *373:A 0.000107627
39 *10:68 *505:A2 1.59634e-05
40 *10:68 *532:B 0.00016765
41 *10:68 *556:A1 1.50844e-05
42 *10:68 *595:DE 1.4026e-05
43 *10:68 *599:DE 8.7692e-05
44 *10:68 *82:41 0
45 *10:68 *112:22 3.33338e-05
46 *10:68 *115:12 0.00075048
47 *10:68 *115:35 0
48 *10:68 *116:50 5.60291e-06
49 *10:68 *119:22 0.00013158
50 *10:68 *119:24 0.000255328
51 *10:68 *343:90 0.000545218
52 *10:68 *344:49 6.8455e-05
53 *10:68 *344:84 1.91246e-05
54 *4:57 *10:16 0.000200794
*RES
1 *394:Y *10:16 23.5284 
2 *10:16 *519:SLEEP 21.2754 
3 *10:16 *10:47 14.9405 
4 *10:47 *396:B 29.4951 
5 *10:47 *10:68 44.6056 
6 *10:68 *515:A 9.24915 
*END

*D_NET *11 0.0497586
*CONN
*I *446:A1 I *D sky130_fd_sc_hd__o211ai_1
*I *411:A1 I *D sky130_fd_sc_hd__o211ai_1
*I *462:A1 I *D sky130_fd_sc_hd__o21ai_0
*I *550:A1 I *D sky130_fd_sc_hd__o211ai_1
*I *428:A1 I *D sky130_fd_sc_hd__o211ai_1
*I *485:A1 I *D sky130_fd_sc_hd__o21bai_1
*I *454:A1 I *D sky130_fd_sc_hd__o21ai_0
*I *470:A1 I *D sky130_fd_sc_hd__o21ai_0
*I *395:Y O *D sky130_fd_sc_hd__nand3_1
*CAP
1 *446:A1 0
2 *411:A1 2.36044e-05
3 *462:A1 0.000803417
4 *550:A1 1.40837e-05
5 *428:A1 0.00235979
6 *485:A1 0
7 *454:A1 0.000327793
8 *470:A1 0.000543239
9 *395:Y 5.44831e-05
10 *11:173 0.00134725
11 *11:158 0.00134327
12 *11:150 0.00200821
13 *11:140 0.00258358
14 *11:60 0.00235312
15 *11:44 0.00227886
16 *11:38 0.00605136
17 *11:8 0.0043336
18 *411:A1 *55:12 0
19 *411:A1 *351:528 1.06889e-05
20 *428:A1 *428:A2 0.000183339
21 *428:A1 *538:A2 0
22 *428:A1 *543:A0 0
23 *428:A1 *543:A1 3.39367e-05
24 *428:A1 *543:S 0
25 *428:A1 *545:A2 3.91345e-05
26 *428:A1 *569:CLK 6.12686e-06
27 *428:A1 *22:32 1.79239e-05
28 *428:A1 *44:30 0.000239212
29 *428:A1 *155:146 0.000403912
30 *428:A1 *161:108 5.03234e-05
31 *428:A1 *173:20 9.29815e-06
32 *428:A1 *214:18 8.66759e-05
33 *428:A1 *219:38 0.000130998
34 *428:A1 *278:24 3.3985e-06
35 *428:A1 *282:40 0.000340119
36 *428:A1 *317:22 5.29279e-05
37 *428:A1 *340:50 0.000255816
38 *454:A1 *449:A0 0.000204936
39 *454:A1 *454:A2 8.99118e-08
40 *454:A1 *457:S0 1.66771e-05
41 *454:A1 *472:B1 0.000199603
42 *454:A1 *13:62 0.000122592
43 *454:A1 *13:70 0.00018648
44 *454:A1 *36:14 5.20167e-07
45 *454:A1 *231:28 0.000177764
46 *462:A1 *401:C1 2.14085e-05
47 *462:A1 *416:A2 3.66344e-05
48 *462:A1 *431:A1 4.0869e-05
49 *462:A1 *462:A2 0.000608029
50 *462:A1 *462:B1 4.77822e-05
51 *462:A1 *13:128 2.09495e-05
52 *462:A1 *20:32 0.00035192
53 *462:A1 *125:28 7.47244e-06
54 *462:A1 *228:40 0.000261851
55 *462:A1 *350:328 2.00801e-05
56 *470:A1 *405:A 5.49916e-05
57 *470:A1 *405:B 8.8007e-05
58 *470:A1 *449:A1 2.02035e-05
59 *470:A1 *457:S0 0
60 *470:A1 *470:B1 1.64518e-05
61 *470:A1 *481:A1 7.37835e-05
62 *470:A1 *13:62 1.29445e-05
63 *470:A1 *71:14 0.000144086
64 *470:A1 *266:42 7.83506e-06
65 *470:A1 *308:18 4.51953e-05
66 *470:A1 *314:26 1.66771e-05
67 *11:8 *185:26 3.00073e-05
68 *11:38 *423:A0 1.5714e-05
69 *11:38 *458:A0 0.00209154
70 *11:38 *461:A3 0.000218725
71 *11:38 *520:B 0.000349658
72 *11:38 *539:S 0.000196268
73 *11:38 *643:CLK 0.000103452
74 *11:38 *659:DE 0.000151549
75 *11:38 *13:96 6.15042e-05
76 *11:38 *44:30 2.67176e-05
77 *11:38 *123:32 0.00114978
78 *11:38 *125:28 0.000162072
79 *11:38 *167:167 0.00024482
80 *11:38 *182:90 8.35235e-06
81 *11:38 *185:26 1.59052e-05
82 *11:38 *244:24 3.96709e-05
83 *11:38 *248:34 3.43675e-05
84 *11:38 *272:40 5.60804e-05
85 *11:38 *281:32 0.000373041
86 *11:38 *297:46 1.91246e-05
87 *11:38 *301:30 8.60757e-05
88 *11:38 *332:32 2.23357e-05
89 *11:38 *347:51 5.11466e-05
90 *11:38 *365:75 5.20256e-05
91 *11:44 *561:CLK 0.000117018
92 *11:44 *611:D 0.000205145
93 *11:44 *13:35 0.000206027
94 *11:44 *31:28 8.87433e-05
95 *11:44 *71:24 2.27118e-06
96 *11:44 *167:86 9.04862e-05
97 *11:44 *167:97 0.000363559
98 *11:44 *167:167 0.00053795
99 *11:44 *212:56 6.87503e-05
100 *11:44 *244:24 8.71501e-05
101 *11:44 *298:30 0.000247297
102 *11:44 *310:36 5.91638e-05
103 *11:60 *414:A1 0
104 *11:60 *414:S 0
105 *11:60 *13:62 0.00270452
106 *11:60 *57:26 4.36343e-05
107 *11:60 *71:24 0.000166886
108 *11:60 *117:12 2.02035e-05
109 *11:60 *149:22 6.35996e-05
110 *11:60 *231:28 0.000848995
111 *11:60 *306:28 0.000226438
112 *11:60 *327:36 0.000100854
113 *11:60 *343:167 0.000138438
114 *11:60 *350:545 1.5714e-05
115 *11:60 *357:35 0.00031986
116 *11:140 *398:B 6.18144e-05
117 *11:140 *402:S0 0.000163366
118 *11:140 *440:A1 0
119 *11:140 *459:S0 0.000160493
120 *11:140 *537:B2 3.02534e-05
121 *11:140 *42:22 4.28861e-05
122 *11:140 *44:30 9.84756e-06
123 *11:140 *123:32 1.19618e-05
124 *11:140 *148:28 1.22567e-05
125 *11:140 *321:46 0.000385348
126 *11:140 *326:14 0.000246723
127 *11:140 *367:12 5.70107e-05
128 *11:150 *446:A2 0.000260249
129 *11:150 *446:C1 3.95516e-05
130 *11:150 *63:12 0.00089116
131 *11:150 *326:14 2.52287e-06
132 *11:158 dout[6] 0.000736546
133 *11:158 *478:A2 0
134 *11:158 *550:A2 1.91391e-05
135 *11:158 *137:8 0.000234314
136 *11:158 *203:10 0.000298059
137 *11:158 *259:28 5.27303e-05
138 *11:158 *329:32 0.000331778
139 *11:158 *350:266 0.00021698
140 *11:158 *351:420 2.93688e-05
141 *11:173 *478:B1 2.58616e-05
142 *11:173 *13:128 0.000481624
143 *11:173 *20:32 0.000478109
144 *11:173 *165:8 0.000410783
145 *378:D_N *11:60 0.000179929
146 *395:B *11:8 0
147 *395:B *11:38 0.000303354
148 *519:SLEEP *11:60 1.27831e-06
149 *4:26 *11:60 0.000197821
150 *6:69 *428:A1 7.48998e-06
*RES
1 *395:Y *11:8 15.1659 
2 *11:8 *11:38 36.9849 
3 *11:38 *11:44 31.6129 
4 *11:44 *11:60 33.0415 
5 *11:60 *470:A1 30.9067 
6 *11:60 *454:A1 25.3474 
7 *11:44 *485:A1 9.24915 
8 *11:38 *428:A1 28.7765 
9 *11:8 *11:140 43.656 
10 *11:140 *11:150 33.9904 
11 *11:150 *11:158 35.1734 
12 *11:158 *550:A1 9.87609 
13 *11:158 *11:173 22.3252 
14 *11:173 *462:A1 30.5927 
15 *11:173 *411:A1 14.3761 
16 *11:140 *446:A1 9.24915 
*END

*D_NET *12 0.0153337
*CONN
*I *482:B I *D sky130_fd_sc_hd__nand2_1
*I *481:X O *D sky130_fd_sc_hd__mux4_2
*CAP
1 *482:B 0
2 *481:X 0.00183006
3 *12:30 0.00141217
4 *12:26 0.00324223
5 *12:26 *457:S0 4.6634e-05
6 *12:26 *31:46 0.000508925
7 *12:26 *71:14 0
8 *12:26 *91:16 3.9003e-05
9 *12:26 *144:34 0.00157944
10 *12:26 *182:14 1.72919e-05
11 *12:26 *183:40 0.000147838
12 *12:26 *226:36 2.85959e-05
13 *12:26 *247:28 0.000182267
14 *12:26 *262:26 1.78584e-05
15 *12:26 *271:26 0.000103693
16 *12:26 *274:28 0.00273769
17 *12:26 *277:34 9.37169e-05
18 *12:26 *288:40 9.32455e-05
19 *12:26 *299:90 2.65163e-05
20 *12:30 *446:A2 0.000508359
21 *12:30 *579:DE 0.000292723
22 *12:30 *23:16 0.000241375
23 *12:30 *23:26 6.23737e-05
24 *12:30 *80:215 7.15683e-05
25 *12:30 *80:234 0.000168323
26 *12:30 *80:245 2.31772e-05
27 *12:30 *80:270 2.43676e-05
28 *12:30 *81:202 0.000705498
29 *12:30 *160:81 4.33185e-05
30 *12:30 *160:120 0.000399573
31 *12:30 *169:96 0.000457956
32 *12:30 *241:48 4.8317e-05
33 *12:30 *267:28 9.1756e-05
34 *12:30 *291:26 6.51527e-05
35 *12:30 *322:48 0
36 *12:30 *366:192 2.27135e-05
*RES
1 *481:X *12:26 33.3111 
2 *12:26 *12:30 49.3106 
3 *12:30 *482:B 9.24915 
*END

*D_NET *13 0.0547245
*CONN
*I *411:A2 I *D sky130_fd_sc_hd__o211ai_1
*I *462:A2 I *D sky130_fd_sc_hd__o21ai_0
*I *550:A2 I *D sky130_fd_sc_hd__o211ai_1
*I *446:A2 I *D sky130_fd_sc_hd__o211ai_1
*I *454:A2 I *D sky130_fd_sc_hd__o21ai_0
*I *470:A2 I *D sky130_fd_sc_hd__o21ai_0
*I *485:A2 I *D sky130_fd_sc_hd__o21bai_1
*I *428:A2 I *D sky130_fd_sc_hd__o211ai_1
*I *396:Y O *D sky130_fd_sc_hd__xnor2_1
*CAP
1 *411:A2 0
2 *462:A2 0.000763879
3 *550:A2 1.41048e-05
4 *446:A2 0.000975366
5 *454:A2 5.02367e-05
6 *470:A2 0.000582498
7 *485:A2 0
8 *428:A2 0.000540653
9 *396:Y 6.8554e-05
10 *13:128 0.00150018
11 *13:111 0.0020226
12 *13:96 0.00381991
13 *13:70 0.00108634
14 *13:62 0.00255172
15 *13:35 0.00354956
16 *13:23 0.00481163
17 *13:8 0.00239705
18 *428:A2 *543:A0 5.04829e-06
19 *428:A2 *544:A1 2.02035e-05
20 *428:A2 *569:CLK 5.35399e-05
21 *428:A2 *612:D 0.000500842
22 *428:A2 *24:16 0.000300045
23 *428:A2 *44:30 1.58517e-05
24 *428:A2 *47:12 5.04829e-06
25 *428:A2 *80:8 1.62206e-05
26 *428:A2 *80:18 5.41164e-05
27 *428:A2 *152:20 9.80784e-05
28 *428:A2 *286:18 0
29 *428:A2 *361:28 3.34802e-05
30 *428:A2 *361:30 6.66974e-05
31 *446:A2 *410:A1 0.000105118
32 *446:A2 *446:C1 0.000114584
33 *446:A2 *450:S0 0.000278999
34 *446:A2 *579:DE 5.04097e-05
35 *446:A2 *23:16 0.000430591
36 *446:A2 *63:12 1.88152e-05
37 *446:A2 *64:10 7.59261e-05
38 *446:A2 *80:270 3.3239e-06
39 *446:A2 *178:12 9.74593e-05
40 *446:A2 *236:32 9.84424e-06
41 *446:A2 *307:32 5.54675e-05
42 *446:A2 *326:14 1.19618e-05
43 *446:A2 *351:328 0.00057513
44 *454:A2 *472:B1 1.19856e-05
45 *462:A2 *401:A1 2.02035e-05
46 *462:A2 *401:C1 1.27831e-06
47 *462:A2 *411:B1 2.87798e-05
48 *462:A2 *431:A1 0.000124787
49 *462:A2 *462:B1 3.20407e-05
50 *462:A2 *545:A2 4.0143e-05
51 *462:A2 *20:32 3.79421e-05
52 *462:A2 *37:16 0
53 *462:A2 *63:8 9.82838e-06
54 *462:A2 *125:28 0.000568263
55 *462:A2 *350:328 6.22732e-06
56 *462:A2 *351:542 1.39261e-05
57 *470:A2 *454:B1 1.58588e-05
58 *470:A2 *470:B1 7.78546e-05
59 *470:A2 *64:10 0.000140018
60 *470:A2 *133:12 0
61 *470:A2 *144:34 0
62 *470:A2 *145:22 0.000309108
63 *470:A2 *182:14 0
64 *470:A2 *183:40 4.49912e-05
65 *470:A2 *185:26 7.70344e-05
66 *13:8 *24:16 4.76318e-05
67 *13:8 *286:18 0
68 *13:23 *457:A2 3.86707e-05
69 *13:23 *458:A0 0.000204932
70 *13:23 *544:A1 6.7323e-05
71 *13:23 *651:DE 8.97793e-05
72 *13:23 *82:41 7.20648e-06
73 *13:23 *107:24 0
74 *13:23 *166:28 0.000162778
75 *13:23 *168:24 5.41771e-05
76 *13:23 *282:40 9.22862e-05
77 *13:23 *309:32 0.00259471
78 *13:23 *328:32 5.88522e-06
79 *13:35 *379:A 3.17436e-05
80 *13:35 *420:A1 0.00042583
81 *13:35 *561:CLK 0.000120544
82 *13:35 *611:D 0.000117841
83 *13:35 *155:44 3.17436e-05
84 *13:35 *212:56 9.38827e-06
85 *13:35 *220:28 1.60578e-06
86 *13:35 *241:48 0.000354352
87 *13:35 *281:32 9.63049e-06
88 *13:35 *301:30 0.000670421
89 *13:35 *305:32 0.000126551
90 *13:35 *332:32 0.00143514
91 *13:35 *340:50 0.0006761
92 *13:62 *379:B 9.29815e-06
93 *13:62 *420:A1 4.03007e-05
94 *13:62 *449:A1 4.99006e-05
95 *13:62 *457:S0 2.3407e-05
96 *13:62 *699:CLK 0.000363443
97 *13:62 *36:14 1.06943e-05
98 *13:62 *56:28 7.13655e-06
99 *13:62 *57:26 4.93307e-05
100 *13:62 *71:24 3.11933e-06
101 *13:62 *93:30 4.30121e-05
102 *13:62 *169:8 8.11461e-05
103 *13:62 *182:47 0.000233458
104 *13:62 *212:56 9.12416e-06
105 *13:62 *282:40 0.000226438
106 *13:62 *298:30 0.00182237
107 *13:62 *306:28 3.35483e-05
108 *13:62 *308:18 0.000156509
109 *13:62 *343:167 1.91391e-05
110 *13:62 *346:62 0.000104754
111 *13:62 *356:16 0.000822488
112 *13:70 *449:A0 0.00020071
113 *13:96 *435:B2 6.68644e-06
114 *13:96 *457:A2 4.26378e-05
115 *13:96 *458:A0 3.17436e-05
116 *13:96 *130:52 0.000113819
117 *13:96 *238:22 0.000998335
118 *13:96 *272:40 0.000166713
119 *13:96 *275:36 0.00144797
120 *13:96 *309:32 0.00152188
121 *13:96 *321:46 2.01262e-05
122 *13:96 *366:192 4.907e-05
123 *13:111 *435:B2 1.55199e-05
124 *13:111 *60:62 0.000187247
125 *13:111 *130:52 6.16209e-06
126 *13:111 *204:12 8.38557e-05
127 *13:111 *211:24 0
128 *13:111 *275:36 0.000946057
129 *13:111 *277:34 0.000168752
130 *13:111 *285:34 5.14594e-05
131 *13:111 *334:54 0.000936781
132 *13:111 *350:285 0.000145496
133 *13:128 *411:C1 6.77364e-05
134 *13:128 *437:A1 5.51377e-06
135 *13:128 *545:A2 0.000171263
136 *13:128 *20:32 2.47594e-05
137 *13:128 *66:12 6.67989e-05
138 *13:128 *88:32 0
139 *13:128 *130:52 3.59569e-06
140 *13:128 *201:18 0
141 *13:128 *204:12 0.000124415
142 *13:128 *215:40 9.29036e-06
143 *13:128 *350:285 0.000263803
144 *428:A1 *428:A2 0.000183339
145 *454:A1 *454:A2 8.99118e-08
146 *454:A1 *13:62 0.000122592
147 *454:A1 *13:70 0.00018648
148 *462:A1 *462:A2 0.000608029
149 *462:A1 *13:128 2.09495e-05
150 *470:A1 *13:62 1.29445e-05
151 *472:A2 *470:A2 0.00068726
152 *2:14 *13:35 1.60578e-06
153 *4:12 *13:62 5.34805e-06
154 *11:38 *13:96 6.15042e-05
155 *11:44 *13:35 0.000206027
156 *11:60 *13:62 0.00270452
157 *11:150 *446:A2 0.000260249
158 *11:158 *550:A2 1.91391e-05
159 *11:173 *13:128 0.000481624
160 *12:30 *446:A2 0.000508359
*RES
1 *396:Y *13:8 15.7888 
2 *13:8 *428:A2 33.1251 
3 *13:8 *13:23 8.04633 
4 *13:23 *13:35 24.1908 
5 *13:35 *485:A2 13.7491 
6 *13:35 *13:62 47.7849 
7 *13:62 *13:70 12.6261 
8 *13:70 *470:A2 36.8981 
9 *13:70 *454:A2 10.5513 
10 *13:23 *13:96 4.60105 
11 *13:96 *446:A2 49.0908 
12 *13:96 *13:111 3.41545 
13 *13:111 *550:A2 17.4965 
14 *13:111 *13:128 14.9872 
15 *13:128 *462:A2 31.238 
16 *13:128 *411:A2 13.7491 
*END

*D_NET *14 0.00913647
*CONN
*I *398:B I *D sky130_fd_sc_hd__nor2_1
*I *397:Y O *D sky130_fd_sc_hd__mux2i_1
*CAP
1 *398:B 0.000948794
2 *397:Y 0.0010277
3 *14:14 0.0019765
4 *398:B *402:S0 0.000299085
5 *398:B *459:S0 0.000169618
6 *398:B *468:A2 5.42506e-06
7 *398:B *21:20 0.00014613
8 *398:B *77:14 0.000310387
9 *398:B *261:42 0.00104549
10 *398:B *265:30 1.91246e-05
11 *398:B *321:46 1.46059e-05
12 *398:B *350:191 0.000361676
13 *398:B *350:661 0.000337905
14 *14:14 *435:B2 0.000105717
15 *14:14 *60:62 4.19401e-06
16 *14:14 *169:71 3.30319e-05
17 *14:14 *182:197 2.02035e-05
18 *14:14 *211:24 0.00181435
19 *14:14 *265:68 0.000110941
20 *14:14 *294:32 0.000323785
21 *11:140 *398:B 6.18144e-05
*RES
1 *397:Y *14:14 23.5924 
2 *14:14 *398:B 47.3479 
*END

*D_NET *15 0.0125869
*CONN
*I *401:C1 I *D sky130_fd_sc_hd__a221oi_1
*I *398:Y O *D sky130_fd_sc_hd__nor2_1
*CAP
1 *401:C1 0.00293119
2 *398:Y 0
3 *15:6 0.00483825
4 *15:4 0.00190706
5 *401:C1 dout[6] 0.000346925
6 *401:C1 *401:A1 4.45999e-05
7 *401:C1 *401:B2 2.02995e-05
8 *401:C1 *411:B1 4.69495e-06
9 *401:C1 *411:C1 0.000111693
10 *401:C1 *416:A2 1.68091e-05
11 *401:C1 *431:A1 2.1203e-06
12 *401:C1 *437:A1 3.50342e-05
13 *401:C1 *545:A2 0
14 *401:C1 *59:16 1.09738e-05
15 *401:C1 *59:18 0
16 *401:C1 *131:38 7.79853e-05
17 *401:C1 *138:28 0.000152077
18 *401:C1 *228:40 0.00155145
19 *15:6 *398:A 6.92705e-05
20 *15:6 *59:16 0.000113968
21 *15:6 *273:30 0.000329803
22 *462:A1 *401:C1 2.14085e-05
23 *462:A2 *401:C1 1.27831e-06
*RES
1 *398:Y *15:4 9.24915 
2 *15:4 *15:6 46.2009 
3 *15:6 *401:C1 45.4892 
*END

*D_NET *18 0.00213663
*CONN
*I *408:A2 I *D sky130_fd_sc_hd__o211ai_1
*I *401:Y O *D sky130_fd_sc_hd__a221oi_1
*CAP
1 *408:A2 0.000696373
2 *401:Y 0.000696373
3 *408:A2 *411:B1 6.28941e-05
4 *408:A2 *547:A1 0.000193971
5 *408:A2 *20:32 7.98425e-06
6 *408:A2 *37:16 0
7 *408:A2 *42:12 3.5978e-05
8 *408:A2 *89:12 1.35173e-05
9 *408:A2 *125:28 7.12632e-06
10 *408:A2 *126:20 0.000214921
11 *408:A2 *228:40 6.34419e-05
12 *408:A2 *350:328 2.52155e-05
13 *408:A2 *350:334 1.8706e-05
14 *408:A2 *351:528 3.92851e-05
15 *408:A2 *351:542 6.08467e-05
*RES
1 *401:Y *408:A2 45.0569 
*END

*D_NET *19 0.00307405
*CONN
*I *403:B I *D sky130_fd_sc_hd__nand2_1
*I *402:X O *D sky130_fd_sc_hd__mux4_2
*CAP
1 *403:B 0
2 *402:X 0.000934849
3 *19:26 0.000934849
4 *19:26 *430:A2 7.42152e-05
5 *19:26 *450:A2 0.000193665
6 *19:26 *467:A1 0.000102255
7 *19:26 *64:10 0.000255336
8 *19:26 *178:12 3.25641e-05
9 *19:26 *236:32 4.03324e-05
10 *19:26 *237:22 0.000301441
11 *19:26 *247:28 6.3657e-05
12 *19:26 *307:32 6.32168e-05
13 *19:26 *350:206 7.76737e-05
*RES
1 *402:X *19:26 48.7967 
2 *19:26 *403:B 9.24915 
*END

*D_NET *20 0.0115552
*CONN
*I *408:B1 I *D sky130_fd_sc_hd__o211ai_1
*I *403:Y O *D sky130_fd_sc_hd__nand2_1
*CAP
1 *408:B1 0
2 *403:Y 0.000608254
3 *20:32 0.00133053
4 *20:24 0.00280641
5 *20:20 0.00208413
6 *20:20 *467:A0 3.56928e-05
7 *20:20 *467:A1 1.25799e-05
8 *20:20 *467:S0 3.56986e-05
9 *20:20 *35:28 0.000693851
10 *20:20 *48:30 1.85244e-05
11 *20:20 *93:30 5.94811e-05
12 *20:20 *239:16 5.15454e-05
13 *20:20 *307:32 0.000515418
14 *20:20 *350:206 7.84597e-06
15 *20:20 *368:10 1.5714e-05
16 *20:24 *412:A1 0.000172531
17 *20:24 *433:A2 0.000113122
18 *20:24 *51:18 1.83795e-06
19 *20:24 *350:230 0.000123802
20 *20:32 *434:S 8.71786e-05
21 *20:32 *547:B2 2.63702e-05
22 *20:32 *49:12 0.00174385
23 *20:32 *55:20 0
24 *20:32 *66:12 0
25 *20:32 *240:16 7.14746e-05
26 *20:32 *351:542 3.86795e-05
27 *408:A2 *20:32 7.98425e-06
28 *462:A1 *20:32 0.00035192
29 *462:A2 *20:32 3.79421e-05
30 *11:173 *20:32 0.000478109
31 *13:128 *20:32 2.47594e-05
*RES
1 *403:Y *20:20 31.8063 
2 *20:20 *20:24 26.8529 
3 *20:24 *20:32 47.911 
4 *20:32 *408:B1 9.24915 
*END

*D_NET *21 0.0154095
*CONN
*I *405:B I *D sky130_fd_sc_hd__nor2_1
*I *404:Y O *D sky130_fd_sc_hd__mux2i_1
*CAP
1 *405:B 0.000568062
2 *404:Y 0.00154256
3 *21:20 0.0024452
4 *21:18 0.0034197
5 *405:B *405:A 2.60141e-05
6 *405:B *487:A2 0.00072115
7 *405:B *257:38 8.56006e-05
8 *405:B *287:34 2.89106e-05
9 *405:B *308:18 6.72773e-05
10 *405:B *350:442 8.60109e-05
11 *21:18 *404:A0 0.000262098
12 *21:18 *404:A1 2.05537e-05
13 *21:18 *581:CLK 0.000235444
14 *21:18 *628:CLK 4.66492e-05
15 *21:18 *638:D 9.12033e-06
16 *21:18 *638:DE 3.70874e-06
17 *21:18 *169:71 0.000106489
18 *21:18 *212:28 2.61955e-05
19 *21:18 *265:30 0.000135127
20 *21:20 *468:A2 4.68333e-05
21 *21:20 *571:D 0
22 *21:20 *586:DE 0.000102301
23 *21:20 *632:D 0
24 *21:20 *640:DE 9.34263e-05
25 *21:20 *684:DE 7.71503e-05
26 *21:20 *81:177 0
27 *21:20 *157:131 0.000217341
28 *21:20 *160:120 1.70968e-05
29 *21:20 *161:162 0.000223863
30 *21:20 *167:117 2.95475e-05
31 *21:20 *169:81 0.000299457
32 *21:20 *233:34 7.20173e-06
33 *21:20 *261:34 6.63705e-05
34 *21:20 *261:42 0.000513437
35 *21:20 *272:40 0.000184459
36 *21:20 *275:36 8.67162e-05
37 *21:20 *287:24 0.000740025
38 *21:20 *287:34 0.00133221
39 *21:20 *293:24 0
40 *21:20 *293:42 0.000304768
41 *21:20 *299:90 3.98296e-05
42 *21:20 *308:18 0.000544783
43 *21:20 *313:52 1.5714e-05
44 *21:20 *321:22 0.000230038
45 *21:20 *321:46 6.03343e-05
46 *21:20 *330:48 0.000106599
47 *398:B *21:20 0.00014613
48 *470:A1 *405:B 8.8007e-05
*RES
1 *404:Y *21:18 38.7304 
2 *21:18 *21:20 66.6113 
3 *21:20 *405:B 30.4325 
*END

*D_NET *22 0.0216906
*CONN
*I *406:C1 I *D sky130_fd_sc_hd__a221oi_1
*I *405:Y O *D sky130_fd_sc_hd__nor2_1
*CAP
1 *406:C1 0.00031424
2 *405:Y 0.000279371
3 *22:32 0.0022727
4 *22:12 0.00488107
5 *22:10 0.00320198
6 *406:C1 *700:DE 0
7 *406:C1 *700:CLK 0.000135038
8 *406:C1 *24:16 2.0506e-05
9 *406:C1 *317:22 3.9154e-05
10 *22:10 *188:16 0
11 *22:10 *271:26 0
12 *22:12 *422:A2 0.000271044
13 *22:12 *469:A0 0.000102531
14 *22:12 *39:18 0.000250542
15 *22:12 *100:6 0.00385618
16 *22:32 *502:B1 0.000509721
17 *22:32 *566:DE 0
18 *22:32 *78:26 0.00242115
19 *22:32 *81:12 0.000268247
20 *22:32 *82:92 0.000115282
21 *22:32 *107:24 9.77794e-05
22 *22:32 *114:55 0.000445548
23 *22:32 *120:39 0.00072546
24 *22:32 *162:12 2.07556e-06
25 *22:32 *317:22 6.67761e-06
26 *428:A1 *22:32 1.79239e-05
27 *8:18 *22:32 0.00145633
*RES
1 *405:Y *22:10 23.4032 
2 *22:10 *22:12 52.3015 
3 *22:12 *22:32 47.8299 
4 *22:32 *406:C1 22.0441 
*END

*D_NET *23 0.0120933
*CONN
*I *483:A2 I *D sky130_fd_sc_hd__a21oi_1
*I *482:Y O *D sky130_fd_sc_hd__nand2_1
*CAP
1 *483:A2 6.09328e-05
2 *482:Y 0.000833322
3 *23:26 0.00154777
4 *23:16 0.00232016
5 *483:A2 *484:B1 2.53145e-06
6 *23:16 *450:S0 1.21461e-06
7 *23:16 *64:10 0.00132531
8 *23:16 *69:26 1.4091e-06
9 *23:16 *169:96 0.000454495
10 *23:26 *457:A1 2.12346e-05
11 *23:26 *479:S0 0.000112195
12 *23:26 *480:B 8.6297e-06
13 *23:26 *483:A1 7.3986e-05
14 *23:26 *571:DE 4.73515e-05
15 *23:26 *572:DE 5.95368e-05
16 *23:26 *64:10 0.00203684
17 *23:26 *81:202 0.000707886
18 *23:26 *133:12 5.99155e-05
19 *23:26 *142:12 5.99155e-05
20 *23:26 *241:48 0
21 *23:26 *271:26 3.29488e-05
22 *23:26 *288:40 5.38612e-06
23 *23:26 *293:24 5.98389e-05
24 *23:26 *336:58 9.53336e-05
25 *23:26 *350:414 0.000710598
26 *23:26 *350:442 3.17436e-05
27 *446:A2 *23:16 0.000430591
28 *3:93 *23:26 0.000688479
29 *12:30 *23:16 0.000241375
30 *12:30 *23:26 6.23737e-05
*RES
1 *482:Y *23:16 43.0639 
2 *23:16 *23:26 49.0261 
3 *23:26 *483:A2 15.0513 
*END

*D_NET *24 0.0175336
*CONN
*I *410:A2 I *D sky130_fd_sc_hd__o21ai_0
*I *406:Y O *D sky130_fd_sc_hd__a221oi_1
*CAP
1 *410:A2 0.00295243
2 *406:Y 0.000918214
3 *24:16 0.00387065
4 *410:A2 *430:A2 0.00425941
5 *410:A2 *432:A1 9.69677e-05
6 *410:A2 *433:B1 7.25148e-06
7 *410:A2 *450:A2 1.13647e-05
8 *410:A2 *476:A1 1.30666e-05
9 *410:A2 *494:B 0.000158495
10 *410:A2 *556:A1 0.00066859
11 *410:A2 *598:D 0.000190021
12 *410:A2 *598:DE 3.6783e-05
13 *410:A2 *598:CLK 0.000114594
14 *410:A2 *644:DE 5.04829e-06
15 *410:A2 *644:CLK 3.04443e-05
16 *410:A2 *654:DE 4.69109e-05
17 *410:A2 *53:22 0.000885183
18 *410:A2 *82:41 0.000345729
19 *410:A2 *103:30 1.43499e-05
20 *410:A2 *104:47 0
21 *410:A2 *146:26 1.84183e-05
22 *410:A2 *153:22 0
23 *410:A2 *238:22 0.000100501
24 *410:A2 *279:38 0.000278207
25 *410:A2 *368:116 0.000143899
26 *24:16 *504:B 0.000384802
27 *24:16 *553:B 0.000931794
28 *24:16 *80:18 0.000220748
29 *24:16 *96:22 7.10885e-05
30 *24:16 *105:10 0.000390493
31 *24:16 *286:18 0
32 *24:16 *344:49 0
33 *406:C1 *24:16 2.0506e-05
34 *428:A2 *24:16 0.000300045
35 *13:8 *24:16 4.76318e-05
*RES
1 *406:Y *24:16 49.8524 
2 *24:16 *410:A2 42.9585 
*END

*D_NET *25 0.00122417
*CONN
*I *409:A2 I *D sky130_fd_sc_hd__a21oi_1
*I *407:X O *D sky130_fd_sc_hd__mux4_2
*CAP
1 *409:A2 0.000509875
2 *407:X 0.000509875
3 *409:A2 *478:A2 0
4 *409:A2 *137:8 4.74668e-05
5 *409:A2 *351:420 0.000156955
*RES
1 *407:X *409:A2 37.293 
*END

*D_NET *26 0.00169803
*CONN
*I *411:B1 I *D sky130_fd_sc_hd__o211ai_1
*I *408:Y O *D sky130_fd_sc_hd__o211ai_1
*CAP
1 *411:B1 0.000583615
2 *408:Y 0.000583615
3 *411:B1 *401:A1 5.38612e-06
4 *411:B1 *431:A1 0
5 *411:B1 *126:20 5.04879e-05
6 *411:B1 *351:528 0.000244235
7 *411:B1 *351:542 0.000134322
8 *401:C1 *411:B1 4.69495e-06
9 *408:A2 *411:B1 6.28941e-05
10 *462:A2 *411:B1 2.87798e-05
*RES
1 *408:Y *411:B1 42.9509 
*END

*D_NET *27 0.00520911
*CONN
*I *410:B1 I *D sky130_fd_sc_hd__o21ai_0
*I *409:Y O *D sky130_fd_sc_hd__a21oi_1
*CAP
1 *410:B1 0.000430878
2 *409:Y 0.00120863
3 *27:16 0.00163951
4 *410:B1 *467:A3 0.000128702
5 *410:B1 *1205:A 7.09666e-06
6 *410:B1 *28:8 5.16467e-05
7 *410:B1 *216:46 9.43002e-05
8 *410:B1 *237:22 6.64386e-05
9 *410:B1 *264:30 1.7764e-05
10 *410:B1 *326:14 0.000161919
11 *410:B1 *368:10 0.000235147
12 *27:16 *473:A1 0
13 *27:16 *1205:A 8.67374e-05
14 *27:16 *60:62 0.000173094
15 *27:16 *62:8 1.4091e-06
16 *27:16 *216:46 1.52868e-05
17 *27:16 *251:60 0.000178783
18 *27:16 *329:32 0
19 *27:16 *350:240 0.00030891
20 *27:16 *350:255 0.000377018
21 *27:16 *351:420 2.58361e-05
*RES
1 *409:Y *27:16 45.8459 
2 *27:16 *410:B1 26.6495 
*END

*D_NET *28 0.00885369
*CONN
*I *411:C1 I *D sky130_fd_sc_hd__o211ai_1
*I *410:Y O *D sky130_fd_sc_hd__o21ai_0
*CAP
1 *411:C1 0.00107063
2 *410:Y 0.00242185
3 *28:8 0.00349248
4 *411:C1 *545:A2 7.631e-05
5 *411:C1 *551:A1 0
6 *411:C1 *42:12 0
7 *411:C1 *42:22 0
8 *411:C1 *66:12 0.00140804
9 *411:C1 *131:38 3.64684e-05
10 *411:C1 *351:528 5.22654e-06
11 *28:8 *66:20 0.000111605
12 *401:C1 *411:C1 0.000111693
13 *410:B1 *28:8 5.16467e-05
14 *13:128 *411:C1 6.77364e-05
*RES
1 *410:Y *28:8 48.3034 
2 *28:8 *411:C1 48.3861 
*END

*D_NET *31 0.0199364
*CONN
*I *416:A2 I *D sky130_fd_sc_hd__o21ai_0
*I *414:Y O *D sky130_fd_sc_hd__mux2i_1
*CAP
1 *416:A2 0.000947481
2 *414:Y 0.000700812
3 *31:58 0.0028764
4 *31:46 0.0038733
5 *31:28 0.0026452
6 *416:A2 *401:A1 0.000668903
7 *416:A2 *431:A0 6.7179e-06
8 *416:A2 *462:B1 1.66626e-05
9 *416:A2 *545:A2 5.48777e-05
10 *416:A2 *37:16 2.99859e-05
11 *416:A2 *88:32 0
12 *416:A2 *131:38 0.000120157
13 *416:A2 *228:40 2.70083e-05
14 *416:A2 *350:328 2.9205e-05
15 *31:28 *453:A0 1.24478e-05
16 *31:28 *660:D 1.91246e-05
17 *31:28 *660:CLK 0.000112012
18 *31:28 *71:24 0.000298642
19 *31:28 *80:93 0.000181996
20 *31:28 *163:43 9.72836e-05
21 *31:28 *163:58 3.77568e-05
22 *31:28 *170:133 3.77568e-05
23 *31:28 *212:56 9.20637e-05
24 *31:28 *241:48 4.54865e-05
25 *31:28 *281:32 0
26 *31:28 *310:36 5.11466e-05
27 *31:28 *336:113 0.000316854
28 *31:46 *397:A0 8.96553e-05
29 *31:46 *585:DE 0.000258847
30 *31:46 *87:30 0.0018734
31 *31:46 *144:34 1.87227e-05
32 *31:46 *156:101 0.000271491
33 *31:46 *158:69 0.00118581
34 *31:46 *210:20 2.15389e-05
35 *31:46 *226:36 4.94211e-05
36 *31:46 *241:48 0.000533029
37 *31:46 *302:24 0.000135127
38 *31:46 *310:36 5.39404e-06
39 *31:46 *325:20 6.38934e-05
40 *31:58 *605:D 1.21156e-05
41 *31:58 *605:DE 2.86944e-05
42 *31:58 *605:CLK 1.88014e-05
43 *31:58 *609:D 9.42325e-05
44 *31:58 *70:30 6.54943e-06
45 *31:58 *157:150 0.000115423
46 *31:58 *231:38 0.00105806
47 *31:58 *258:24 3.1403e-05
48 *31:58 *263:34 0
49 *31:58 *266:28 3.20366e-05
50 *31:58 *288:40 1.15862e-05
51 *31:58 *329:28 1.40158e-05
52 *31:58 *330:48 3.88213e-05
53 *401:C1 *416:A2 1.68091e-05
54 *462:A1 *416:A2 3.66344e-05
55 *5:24 *416:A2 1.79334e-05
56 *11:44 *31:28 8.87433e-05
57 *12:26 *31:46 0.000508925
*RES
1 *414:Y *31:28 47.1396 
2 *31:28 *31:46 33.1134 
3 *31:46 *31:58 49.8622 
4 *31:58 *416:A2 22.023 
*END

*D_NET *33 0.000559085
*CONN
*I *427:A1 I *D sky130_fd_sc_hd__a21o_1
*I *416:Y O *D sky130_fd_sc_hd__o21ai_0
*CAP
1 *427:A1 0.000187124
2 *416:Y 0.000187124
3 *427:A1 *416:A1 9.95542e-06
4 *427:A1 *427:A2 2.07365e-05
5 *427:A1 *37:16 0.000154145
*RES
1 *416:Y *427:A1 21.4401 
*END

*D_NET *34 0.000471767
*CONN
*I *484:B1 I *D sky130_fd_sc_hd__a31oi_1
*I *483:Y O *D sky130_fd_sc_hd__a21oi_1
*CAP
1 *484:B1 0.000224074
2 *483:Y 0.000224074
3 *484:B1 *429:A1 9.95922e-06
4 *484:B1 *132:22 1.1128e-05
5 *483:A2 *484:B1 2.53145e-06
*RES
1 *483:Y *484:B1 25.3947 
*END

*D_NET *35 0.0224927
*CONN
*I *419:A2 I *D sky130_fd_sc_hd__o21ai_0
*I *417:Y O *D sky130_fd_sc_hd__mux2i_1
*CAP
1 *419:A2 0
2 *417:Y 0.00569172
3 *35:28 0.00569172
4 *35:28 dout[3] 9.0174e-05
5 *35:28 *417:A1 0.000107496
6 *35:28 *417:S 1.97124e-05
7 *35:28 *430:A2 1.38382e-06
8 *35:28 *451:A1 3.8017e-05
9 *35:28 *536:A0 1.60381e-05
10 *35:28 *538:A2 1.75765e-05
11 *35:28 *681:DE 2.33103e-06
12 *35:28 *36:18 5.22654e-06
13 *35:28 *41:16 1.85244e-05
14 *35:28 *53:22 4.94386e-06
15 *35:28 *54:22 0.00190949
16 *35:28 *70:30 0.00126089
17 *35:28 *93:30 0.00233262
18 *35:28 *126:20 0
19 *35:28 *134:10 0.00015922
20 *35:28 *156:46 0.000953911
21 *35:28 *182:189 0.000571693
22 *35:28 *222:24 1.68253e-05
23 *35:28 *226:36 0.000347013
24 *35:28 *239:16 0.000105053
25 *35:28 *248:34 9.77482e-06
26 *35:28 *277:34 0.000340902
27 *35:28 *285:34 0.00086788
28 *35:28 *300:22 0.000352167
29 *35:28 *307:32 7.90348e-05
30 *35:28 *312:20 0.000715177
31 *35:28 *334:54 7.23569e-05
32 *20:20 *35:28 0.000693851
*RES
1 *417:Y *35:28 45.178 
2 *35:28 *419:A2 9.24915 
*END

*D_NET *36 0.0147143
*CONN
*I *419:B1 I *D sky130_fd_sc_hd__o21ai_0
*I *418:Y O *D sky130_fd_sc_hd__a221oi_1
*CAP
1 *419:B1 0
2 *418:Y 0.00204581
3 *36:18 0.00139532
4 *36:14 0.00344113
5 *36:14 dout[1] 0
6 *36:14 *422:A2 2.60879e-06
7 *36:14 *452:A3 2.60879e-06
8 *36:14 *452:S0 0
9 *36:14 *481:S0 0.000184079
10 *36:14 *71:14 0.00087053
11 *36:14 *91:16 0.00292026
12 *36:14 *93:30 0.000168906
13 *36:14 *210:20 0
14 *36:14 *231:28 2.41076e-06
15 *36:14 *247:28 4.60116e-05
16 *36:14 *255:32 1.22396e-05
17 *36:14 *262:26 0.00218777
18 *36:14 *298:30 1.34605e-05
19 *36:14 *308:18 0.000556393
20 *36:14 *319:36 5.74949e-05
21 *36:14 *350:460 7.69993e-05
22 *36:18 *89:12 0
23 *36:18 *89:20 0
24 *36:18 *126:20 0
25 *36:18 *134:10 0.00065394
26 *36:18 *350:351 5.99155e-05
27 *454:A1 *36:14 5.20167e-07
28 *13:62 *36:14 1.06943e-05
29 *35:28 *36:18 5.22654e-06
*RES
1 *418:Y *36:14 33.6894 
2 *36:14 *36:18 44.3276 
3 *36:18 *419:B1 9.24915 
*END

*D_NET *37 0.00379262
*CONN
*I *427:A2 I *D sky130_fd_sc_hd__a21o_1
*I *419:Y O *D sky130_fd_sc_hd__o21ai_0
*CAP
1 *427:A2 1.11219e-05
2 *419:Y 0.00170389
3 *37:16 0.00171501
4 *427:A2 *416:A1 6.50586e-05
5 *37:16 *419:A1 2.41274e-06
6 *37:16 *462:B1 0
7 *37:16 *63:8 0
8 *37:16 *350:334 9.02572e-05
9 *408:A2 *37:16 0
10 *416:A2 *37:16 2.99859e-05
11 *427:A1 *427:A2 2.07365e-05
12 *427:A1 *37:16 0.000154145
13 *462:A2 *37:16 0
*RES
1 *419:Y *37:16 49.82 
2 *37:16 *427:A2 9.97254 
*END

*D_NET *38 0.0062989
*CONN
*I *422:A2 I *D sky130_fd_sc_hd__o21a_1
*I *420:Y O *D sky130_fd_sc_hd__mux2i_1
*CAP
1 *422:A2 0.000327501
2 *420:Y 0.00122959
3 *38:16 0.00155709
4 *422:A2 *422:A1 0
5 *422:A2 *452:S0 0.000229975
6 *422:A2 *474:B2 1.1573e-05
7 *422:A2 *474:C1 4.87958e-05
8 *422:A2 *39:18 6.44597e-05
9 *422:A2 *182:99 7.26318e-06
10 *422:A2 *319:36 2.81147e-06
11 *38:16 *378:A 2.01653e-05
12 *38:16 *420:A0 0.000260343
13 *38:16 *469:A2 3.12734e-06
14 *38:16 *559:DE 0
15 *38:16 *671:DE 0.000265513
16 *38:16 *56:28 9.84756e-06
17 *38:16 *71:24 0.000131792
18 *38:16 *94:26 0.00043594
19 *38:16 *163:14 0
20 *38:16 *182:20 0.00118026
21 *38:16 *186:28 3.13173e-05
22 *38:16 *306:28 2.19138e-05
23 *38:16 *350:545 0
24 *38:16 *357:14 4.20931e-05
25 *38:16 *357:27 0.000116138
26 *38:16 *357:67 8.62262e-06
27 *3:10 *38:16 1.91246e-05
28 *22:12 *422:A2 0.000271044
29 *36:14 *422:A2 2.60879e-06
*RES
1 *420:Y *38:16 46.5647 
2 *38:16 *422:A2 24.1289 
*END

*D_NET *39 0.0111329
*CONN
*I *422:B1 I *D sky130_fd_sc_hd__o21a_1
*I *421:Y O *D sky130_fd_sc_hd__a221oi_1
*CAP
1 *422:B1 0
2 *421:Y 0.00017137
3 *39:18 0.00193324
4 *39:12 0.00193324
5 *39:10 0.00124622
6 *39:8 0.00141759
7 *39:8 *466:S0 2.81046e-05
8 *39:10 *421:A1 0.000283375
9 *39:10 *92:16 0
10 *39:10 *134:10 0.00282668
11 *39:10 *240:16 0.000859936
12 *39:18 *422:A1 0.000118166
13 *422:A2 *39:18 6.44597e-05
14 *22:12 *39:18 0.000250542
*RES
1 *421:Y *39:8 16.1364 
2 *39:8 *39:10 52.0775 
3 *39:10 *39:12 4.5 
4 *39:12 *39:18 49.1668 
5 *39:18 *422:B1 9.24915 
*END

*D_NET *40 0.0202827
*CONN
*I *426:A1 I *D sky130_fd_sc_hd__o21ai_0
*I *422:X O *D sky130_fd_sc_hd__o21a_1
*CAP
1 *426:A1 0
2 *422:X 0.00481994
3 *40:26 0.00481994
4 *40:26 *422:A1 0
5 *40:26 *426:A2 0.000109954
6 *40:26 *469:A0 0.000117938
7 *40:26 *44:30 0.000121623
8 *40:26 *54:22 2.32216e-05
9 *40:26 *75:30 0.00274287
10 *40:26 *93:30 5.51746e-06
11 *40:26 *102:26 0
12 *40:26 *148:28 0.00337914
13 *40:26 *222:38 9.64501e-06
14 *40:26 *236:32 0.000179341
15 *40:26 *273:30 0.000116253
16 *40:26 *313:52 7.59553e-05
17 *40:26 *319:36 0.00263418
18 *40:26 *321:46 0.00112715
*RES
1 *422:X *40:26 46.7788 
2 *40:26 *426:A1 9.24915 
*END

*D_NET *41 0.00787989
*CONN
*I *425:A2 I *D sky130_fd_sc_hd__o21a_1
*I *423:Y O *D sky130_fd_sc_hd__mux2i_1
*CAP
1 *425:A2 0.000967282
2 *423:Y 0.0010379
3 *41:16 0.00200519
4 *425:A2 *468:A3 5.65463e-05
5 *425:A2 *476:A1 0.000111708
6 *425:A2 *476:S 2.65667e-05
7 *425:A2 *645:DE 0.000215232
8 *425:A2 *101:14 0.00013435
9 *425:A2 *158:10 1.3044e-05
10 *425:A2 *179:26 0.000629401
11 *425:A2 *222:38 0.000287857
12 *425:A2 *273:30 8.51541e-05
13 *425:A2 *313:52 0.000132873
14 *41:16 *404:S 0.000301805
15 *41:16 *423:A0 1.17366e-05
16 *41:16 *433:B1 2.32531e-05
17 *41:16 *629:CLK 0.00032409
18 *41:16 *681:DE 0
19 *41:16 *685:CLK 0.000199432
20 *41:16 *1173:A 3.88438e-05
21 *41:16 *1204:A 7.58772e-05
22 *41:16 *76:16 9.63027e-05
23 *41:16 *101:14 0.00028092
24 *41:16 *155:198 0
25 *41:16 *166:127 5.17431e-05
26 *41:16 *186:28 2.61208e-05
27 *41:16 *350:134 5.29805e-05
28 *41:16 *364:96 0.000353494
29 *41:16 *367:16 5.78625e-05
30 *41:16 *367:22 6.79431e-05
31 *41:16 *367:40 0.000195856
32 *35:28 *41:16 1.85244e-05
*RES
1 *423:Y *41:16 49.3532 
2 *41:16 *425:A2 39.6473 
*END

*D_NET *42 0.0151808
*CONN
*I *425:B1 I *D sky130_fd_sc_hd__o21a_1
*I *424:Y O *D sky130_fd_sc_hd__a221oi_1
*CAP
1 *425:B1 0
2 *424:Y 0.000805106
3 *42:22 0.00310641
4 *42:12 0.00391151
5 *42:12 *59:18 0.000566927
6 *42:12 *89:12 7.09666e-06
7 *42:12 *220:64 4.45999e-05
8 *42:12 *228:40 6.34419e-05
9 *42:12 *350:310 0.000338646
10 *42:12 *350:328 8.99254e-05
11 *42:22 dout[6] 0.000209814
12 *42:22 *402:A1 6.89089e-05
13 *42:22 *433:B1 3.36345e-05
14 *42:22 *476:S 3.08014e-05
15 *42:22 *59:18 9.71323e-06
16 *42:22 *138:28 0.00123892
17 *42:22 *143:14 0
18 *42:22 *217:80 0.000552828
19 *42:22 *218:32 0.00233115
20 *42:22 *274:28 0.000598095
21 *42:22 *285:34 0.000507077
22 *42:22 *321:46 0.000563906
23 *408:A2 *42:12 3.5978e-05
24 *411:C1 *42:12 0
25 *411:C1 *42:22 0
26 *5:24 *42:12 2.3401e-05
27 *11:140 *42:22 4.28861e-05
*RES
1 *424:Y *42:12 38.9774 
2 *42:12 *42:22 48.1954 
3 *42:22 *425:B1 13.7491 
*END

*D_NET *43 0.000314009
*CONN
*I *426:A2 I *D sky130_fd_sc_hd__o21ai_0
*I *425:X O *D sky130_fd_sc_hd__o21a_1
*CAP
1 *426:A2 7.4749e-05
2 *425:X 7.4749e-05
3 *426:A2 *44:30 5.45571e-05
4 *40:26 *426:A2 0.000109954
*RES
1 *425:X *426:A2 29.7455 
*END

*D_NET *44 0.0151363
*CONN
*I *428:B1 I *D sky130_fd_sc_hd__o211ai_1
*I *426:Y O *D sky130_fd_sc_hd__o21ai_0
*CAP
1 *428:B1 0
2 *426:Y 0.00434803
3 *44:30 0.00434803
4 *44:30 *458:S1 0.000322966
5 *44:30 *545:A2 1.31877e-05
6 *44:30 *645:DE 0.000368279
7 *44:30 *78:26 0.000520083
8 *44:30 *82:41 3.29379e-05
9 *44:30 *96:34 0.000454154
10 *44:30 *102:26 0.000174946
11 *44:30 *123:32 0.0022491
12 *44:30 *152:20 7.56859e-06
13 *44:30 *173:20 0.000217293
14 *44:30 *248:34 0.000830661
15 *44:30 *273:30 0.000178501
16 *44:30 *305:32 6.16936e-06
17 *44:30 *313:52 3.8653e-05
18 *44:30 *350:157 1.47846e-05
19 *44:30 *361:42 2.86878e-05
20 *395:B *44:30 0.000514497
21 *426:A2 *44:30 5.45571e-05
22 *428:A1 *44:30 0.000239212
23 *428:A2 *44:30 1.58517e-05
24 *11:38 *44:30 2.67176e-05
25 *11:140 *44:30 9.84756e-06
26 *40:26 *44:30 0.000121623
*RES
1 *426:Y *44:30 44.3192 
2 *44:30 *428:B1 9.24915 
*END

*D_NET *45 0.0116661
*CONN
*I *485:B1_N I *D sky130_fd_sc_hd__o21bai_1
*I *484:Y O *D sky130_fd_sc_hd__a31oi_1
*CAP
1 *485:B1_N 0.00256821
2 *484:Y 0.00256821
3 *485:B1_N *454:B1 0.000147312
4 *485:B1_N *465:A3 0.000175423
5 *485:B1_N *483:A1 0.000338323
6 *485:B1_N *664:DE 3.1158e-05
7 *485:B1_N *56:28 0.000108428
8 *485:B1_N *160:56 5.4655e-05
9 *485:B1_N *160:172 0
10 *485:B1_N *161:20 0.000276446
11 *485:B1_N *186:28 0.000511492
12 *485:B1_N *215:40 0.00267104
13 *485:B1_N *227:18 1.66771e-05
14 *485:B1_N *233:34 0.000147312
15 *485:B1_N *236:32 0.000116159
16 *485:B1_N *261:34 0.00107859
17 *485:B1_N *279:38 7.35298e-05
18 *485:B1_N *279:62 8.34055e-05
19 *485:B1_N *299:60 0.000133323
20 *485:B1_N *305:32 5.48872e-05
21 *378:D_N *485:B1_N 0.000511492
*RES
1 *484:Y *485:B1_N 49.0149 
*END

*D_NET *47 0.0208322
*CONN
*I *430:A2 I *D sky130_fd_sc_hd__a21oi_1
*I *428:Y O *D sky130_fd_sc_hd__o211ai_1
*CAP
1 *430:A2 0.00332018
2 *428:Y 0.00109639
3 *47:12 0.00441657
4 *430:A2 *494:B 0.000413004
5 *430:A2 *516:B 1.51658e-05
6 *430:A2 *48:30 0.00050861
7 *430:A2 *53:22 0.000954525
8 *430:A2 *78:26 1.5714e-05
9 *430:A2 *96:22 0
10 *430:A2 *114:55 0.000138703
11 *430:A2 *114:68 0.000134017
12 *430:A2 *156:14 4.09787e-05
13 *430:A2 *156:46 0.000145642
14 *430:A2 *170:202 0.000366105
15 *430:A2 *177:10 2.02989e-05
16 *430:A2 *178:12 1.66626e-05
17 *430:A2 *183:16 0.000339742
18 *430:A2 *216:46 0.000131959
19 *430:A2 *222:24 1.57481e-05
20 *430:A2 *281:32 0.000414124
21 *430:A2 *294:32 0.00133395
22 *430:A2 *300:22 2.11081e-05
23 *47:12 *543:A0 3.99086e-06
24 *47:12 *545:A2 0.000207266
25 *47:12 *569:CLK 3.79844e-06
26 *47:12 *80:39 0.00034697
27 *47:12 *81:12 0.000761653
28 *47:12 *82:10 1.72799e-05
29 *47:12 *96:22 0
30 *47:12 *119:18 6.3082e-06
31 *47:12 *139:16 0.000594169
32 *47:12 *361:10 0.000110058
33 *47:12 *361:12 0.00013408
34 *47:12 *361:14 0.00025987
35 *47:12 *361:18 0.000187498
36 *410:A2 *430:A2 0.00425941
37 *428:A2 *47:12 5.04829e-06
38 *19:26 *430:A2 7.42152e-05
39 *35:28 *430:A2 1.38382e-06
*RES
1 *428:Y *47:12 48.2651 
2 *47:12 *430:A2 47.6537 
*END

*D_NET *48 0.0117789
*CONN
*I *430:B1 I *D sky130_fd_sc_hd__a21oi_1
*I *429:Y O *D sky130_fd_sc_hd__o21ai_0
*CAP
1 *430:B1 0
2 *429:Y 3.07371e-05
3 *48:30 0.00114201
4 *48:10 0.00281461
5 *48:8 0.00170334
6 *48:10 *429:A1 5.64638e-05
7 *48:10 *450:A3 0.000391354
8 *48:10 *560:DE 8.16007e-06
9 *48:10 *564:DE 1.28451e-05
10 *48:10 *634:DE 0.000334665
11 *48:10 *80:160 0.000387651
12 *48:10 *80:188 0
13 *48:10 *133:12 2.68703e-05
14 *48:10 *169:107 0.000339353
15 *48:10 *177:10 0.000522097
16 *48:10 *209:52 0.00012857
17 *48:10 *213:20 0
18 *48:10 *217:44 0.000246765
19 *48:10 *233:34 7.10451e-05
20 *48:10 *242:18 2.09027e-05
21 *48:10 *258:24 1.92849e-05
22 *48:10 *263:34 0
23 *48:10 *295:22 0.000108448
24 *48:10 *312:20 0.00088008
25 *48:10 *350:389 0.000127931
26 *48:10 *350:408 0.000273363
27 *48:30 *410:A1 1.2693e-05
28 *48:30 *450:A2 0.000118918
29 *48:30 *450:A3 0
30 *48:30 *1205:A 2.69604e-05
31 *48:30 *60:62 0.000166985
32 *48:30 *64:10 0.000161139
33 *48:30 *177:10 0.000164843
34 *48:30 *208:32 7.93381e-05
35 *48:30 *216:46 0.000101133
36 *48:30 *234:56 0
37 *48:30 *237:22 0.000587344
38 *48:30 *264:12 5.04829e-06
39 *48:30 *265:68 1.33798e-05
40 *48:30 *291:26 1.04978e-05
41 *48:30 *368:10 0.000156899
42 *430:A2 *48:30 0.00050861
43 *20:20 *48:30 1.85244e-05
*RES
1 *429:Y *48:8 14.4819 
2 *48:8 *48:10 54.569 
3 *48:10 *48:30 45.0372 
4 *48:30 *430:B1 9.24915 
*END

*D_NET *49 0.00675486
*CONN
*I *433:A2 I *D sky130_fd_sc_hd__o21ai_0
*I *431:Y O *D sky130_fd_sc_hd__mux2i_1
*CAP
1 *433:A2 0.000895744
2 *431:Y 0.00104561
3 *49:12 0.00194136
4 *433:A2 *412:A1 0.000403486
5 *433:A2 *53:22 2.42084e-05
6 *433:A2 *239:16 9.88537e-05
7 *433:A2 *350:240 2.29386e-05
8 *49:12 *401:B2 0.000116276
9 *49:12 *431:A0 1.1718e-05
10 *49:12 *434:S 6.27718e-05
11 *49:12 *437:A1 0.000191096
12 *49:12 *447:A1 3.58321e-05
13 *49:12 *478:A2 0
14 *49:12 *478:B1 0
15 *49:12 *55:20 3.97294e-05
16 *49:12 *201:18 6.14519e-06
17 *49:12 *220:64 2.11837e-06
18 *49:12 *318:16 0
19 *20:24 *433:A2 0.000113122
20 *20:32 *49:12 0.00174385
*RES
1 *431:Y *49:12 47.8906 
2 *49:12 *433:A2 42.9507 
*END

*D_NET *50 0.00790696
*CONN
*I *433:B1 I *D sky130_fd_sc_hd__o21ai_0
*I *432:Y O *D sky130_fd_sc_hd__a221oi_1
*CAP
1 *433:B1 0.0028179
2 *432:Y 0.0028179
3 *433:B1 *53:22 0.000687936
4 *433:B1 *66:20 9.36156e-05
5 *433:B1 *216:46 0
6 *433:B1 *218:32 0.00022606
7 *433:B1 *247:28 6.88205e-06
8 *433:B1 *253:58 0.0010798
9 *433:B1 *279:38 6.87033e-05
10 *433:B1 *367:16 3.33024e-05
11 *433:B1 *367:22 1.07248e-05
12 *410:A2 *433:B1 7.25148e-06
13 *41:16 *433:B1 2.32531e-05
14 *42:22 *433:B1 3.36345e-05
*RES
1 *432:Y *433:B1 48.5602 
*END

*D_NET *51 0.0144953
*CONN
*I *445:A1 I *D sky130_fd_sc_hd__a21o_1
*I *433:Y O *D sky130_fd_sc_hd__o21ai_0
*CAP
1 *445:A1 0.000735861
2 *433:Y 0.00105836
3 *51:38 0.00282834
4 *51:36 0.0027267
5 *51:18 0.00169257
6 *445:A1 *64:8 2.8443e-05
7 *445:A1 *183:40 0.000209952
8 *445:A1 *185:26 5.481e-05
9 *51:18 *435:A1 2.48286e-05
10 *51:18 *473:A0 0.000105649
11 *51:18 *477:B2 5.09649e-05
12 *51:18 *53:22 0.000406115
13 *51:18 *110:24 0.000222346
14 *51:18 *216:36 0.000118288
15 *51:18 *216:46 0
16 *51:18 *218:56 0.000323494
17 *51:18 *275:36 3.63714e-05
18 *51:18 *285:34 4.8878e-06
19 *51:36 *380:A 9.95542e-06
20 *51:36 *201:18 0.000126862
21 *51:36 *216:36 0
22 *51:36 *218:56 0.000491468
23 *51:36 *251:60 3.35038e-05
24 *51:36 *269:20 2.59205e-05
25 *51:36 *322:48 1.9101e-05
26 *51:36 *333:26 0.000112013
27 *51:36 *366:26 7.22263e-05
28 *51:38 *455:A1 1.82746e-05
29 *51:38 *540:B2 0.000105316
30 *51:38 *549:A2 0
31 *51:38 *57:26 0.000134633
32 *51:38 *67:20 0.000613293
33 *51:38 *131:38 0.000127807
34 *51:38 *182:152 5.38612e-06
35 *51:38 *182:167 0.000283842
36 *51:38 *231:38 8.01371e-05
37 *51:38 *251:36 0.000920101
38 *51:38 *251:60 0.000292211
39 *51:38 *266:28 8.41656e-05
40 *51:38 *333:26 6.60191e-06
41 *51:38 *366:51 0.000302686
42 *20:24 *51:18 1.83795e-06
*RES
1 *433:Y *51:18 47.9342 
2 *51:18 *51:36 30.5671 
3 *51:36 *51:38 57.2682 
4 *51:38 *445:A1 30.1943 
*END

*D_NET *53 0.0101076
*CONN
*I *436:B1 I *D sky130_fd_sc_hd__o21ai_0
*I *435:Y O *D sky130_fd_sc_hd__a221oi_1
*CAP
1 *436:B1 0.000593869
2 *435:Y 0.00270284
3 *53:22 0.00329671
4 *436:B1 *432:A1 5.06649e-05
5 *436:B1 *673:DE 2.35126e-05
6 *436:B1 *182:90 1.41307e-05
7 *436:B1 *350:106 3.01683e-06
8 *53:22 *410:A1 6.62441e-05
9 *53:22 *443:B1 3.58321e-05
10 *53:22 *536:A0 4.39676e-05
11 *53:22 *645:D 0
12 *53:22 *673:DE 2.01828e-05
13 *53:22 *93:30 3.94151e-05
14 *53:22 *216:46 0
15 *53:22 *218:32 0
16 *53:22 *218:56 0.0001267
17 *53:22 *236:32 4.57321e-06
18 *53:22 *247:28 6.03237e-05
19 *53:22 *294:32 6.56681e-06
20 *53:22 *350:240 5.61522e-05
21 *410:A2 *53:22 0.000885183
22 *430:A2 *53:22 0.000954525
23 *433:A2 *53:22 2.42084e-05
24 *433:B1 *53:22 0.000687936
25 *35:28 *53:22 4.94386e-06
26 *51:18 *53:22 0.000406115
*RES
1 *435:Y *53:22 44.7255 
2 *53:22 *436:B1 18.171 
*END

*D_NET *54 0.0217433
*CONN
*I *445:A2 I *D sky130_fd_sc_hd__a21o_1
*I *436:Y O *D sky130_fd_sc_hd__o21ai_0
*CAP
1 *445:A2 0.000283941
2 *436:Y 0.00483067
3 *54:22 0.00511462
4 *445:A2 *449:A0 7.72394e-06
5 *445:A2 *472:B1 4.84017e-05
6 *445:A2 *64:10 1.15048e-05
7 *445:A2 *182:14 4.57583e-05
8 *54:22 *449:A0 0.000150008
9 *54:22 *676:DE 6.73319e-05
10 *54:22 *75:30 0.000183862
11 *54:22 *76:16 0.000109969
12 *54:22 *87:30 0.000853126
13 *54:22 *156:46 8.96997e-05
14 *54:22 *166:127 0.000208457
15 *54:22 *182:90 0.000419799
16 *54:22 *231:28 0.00052329
17 *54:22 *233:34 0.000423238
18 *54:22 *236:32 0.00375173
19 *54:22 *239:16 0.000235785
20 *54:22 *245:20 3.89332e-06
21 *54:22 *313:52 0.00155372
22 *54:22 *331:30 1.2653e-05
23 *54:22 *350:106 1.15929e-05
24 *472:A2 *445:A2 6.65803e-05
25 *4:26 *54:22 0.000803227
26 *35:28 *54:22 0.00190949
27 *40:26 *54:22 2.32216e-05
*RES
1 *436:Y *54:22 45.4415 
2 *54:22 *445:A2 19.526 
*END

*D_NET *55 0.00595899
*CONN
*I *439:A2 I *D sky130_fd_sc_hd__o21ai_0
*I *437:Y O *D sky130_fd_sc_hd__mux2i_1
*CAP
1 *439:A2 7.75038e-05
2 *437:Y 6.10213e-05
3 *55:20 0.00155077
4 *55:12 0.00153428
5 *439:A2 *439:B1 3.13667e-05
6 *439:A2 *58:28 3.22174e-05
7 *55:12 *437:A0 4.31603e-06
8 *55:12 *437:A1 6.51628e-05
9 *55:12 *437:S 7.7434e-05
10 *55:20 *401:B2 4.33815e-05
11 *55:20 *421:A1 0.000150492
12 *55:20 *421:B2 3.79786e-05
13 *55:20 *434:S 5.25972e-05
14 *55:20 *437:A1 2.1203e-06
15 *55:20 *439:B1 0.000300565
16 *55:20 *465:A0 0.000566288
17 *55:20 *466:S0 3.92025e-05
18 *55:20 *538:A2 5.47599e-05
19 *55:20 *547:C1 4.0605e-06
20 *55:20 *92:16 0.000221709
21 *55:20 *182:171 7.58711e-06
22 *55:20 *197:45 0.00041749
23 *55:20 *220:64 5.10353e-05
24 *55:20 *240:16 0
25 *55:20 *318:16 0.000450319
26 *55:20 *334:54 8.56006e-05
27 *411:A1 *55:12 0
28 *20:32 *55:20 0
29 *49:12 *55:20 3.97294e-05
*RES
1 *437:Y *55:12 15.7747 
2 *55:12 *55:20 49.906 
3 *55:20 *439:A2 12.1548 
*END

*D_NET *56 0.00887031
*CONN
*I *487:A2 I *D sky130_fd_sc_hd__a21oi_1
*I *485:Y O *D sky130_fd_sc_hd__o21bai_1
*CAP
1 *487:A2 0.000459738
2 *485:Y 0.00201675
3 *56:28 0.00247649
4 *487:A2 *188:16 6.52521e-05
5 *487:A2 *287:34 0.000447845
6 *56:28 *379:B 0.000772885
7 *56:28 *420:A1 2.27135e-05
8 *56:28 *465:A3 0.000417986
9 *56:28 *690:D 2.80374e-05
10 *56:28 *183:16 2.25443e-06
11 *56:28 *183:40 8.07816e-06
12 *56:28 *186:28 3.32565e-05
13 *56:28 *260:26 0.000239832
14 *56:28 *327:36 8.48378e-05
15 *56:28 *350:545 0.0002572
16 *378:D_N *56:28 0.000466352
17 *405:B *487:A2 0.00072115
18 *485:B1_N *56:28 0.000108428
19 *3:20 *56:28 0.00011255
20 *3:93 *56:28 0.000111689
21 *13:62 *56:28 7.13655e-06
22 *38:16 *56:28 9.84756e-06
*RES
1 *485:Y *56:28 47.5097 
2 *56:28 *487:A2 32.954 
*END

*D_NET *57 0.0152289
*CONN
*I *439:B1 I *D sky130_fd_sc_hd__o21ai_0
*I *438:Y O *D sky130_fd_sc_hd__a31oi_1
*CAP
1 *439:B1 0.000911907
2 *438:Y 0.0021936
3 *57:26 0.00310551
4 *439:B1 *439:A1 0
5 *439:B1 *455:A1 2.41274e-06
6 *439:B1 *486:A1 0.000202304
7 *439:B1 *165:10 0.00013689
8 *57:26 *414:A1 0.000450443
9 *57:26 *420:A1 7.58321e-05
10 *57:26 *465:A3 0.000652483
11 *57:26 *549:A2 2.538e-05
12 *57:26 *655:DE 0.000742429
13 *57:26 *149:22 0.000139851
14 *57:26 *158:69 5.84963e-05
15 *57:26 *251:24 0.00159999
16 *57:26 *350:545 1.9101e-05
17 *393:A2 *57:26 0.00435277
18 *439:A2 *439:B1 3.13667e-05
19 *11:60 *57:26 4.36343e-05
20 *13:62 *57:26 4.93307e-05
21 *51:38 *57:26 0.000134633
22 *55:20 *439:B1 0.000300565
*RES
1 *438:Y *57:26 40.8236 
2 *57:26 *439:B1 34.9395 
*END

*D_NET *58 0.0189224
*CONN
*I *440:B1 I *D sky130_fd_sc_hd__a21oi_1
*I *439:Y O *D sky130_fd_sc_hd__o21ai_0
*CAP
1 *440:B1 0
2 *439:Y 0.00468104
3 *58:28 0.00468104
4 *58:28 dout[1] 4.96221e-05
5 *58:28 dout[5] 0.00154656
6 *58:28 *421:B2 0.000924147
7 *58:28 *440:A1 3.27704e-05
8 *58:28 *497:A 4.0919e-05
9 *58:28 *99:12 4.27087e-05
10 *58:28 *136:20 4.20312e-06
11 *58:28 *138:28 0
12 *58:28 *185:26 0.0018707
13 *58:28 *248:34 0.00147207
14 *58:28 *255:32 0.000154824
15 *58:28 *259:28 0.000167795
16 *58:28 *266:28 0.000997915
17 *58:28 *273:30 0.000843685
18 *58:28 *329:32 0.000122429
19 *58:28 *334:54 0.00119331
20 *58:28 *350:373 6.44502e-05
21 *439:A2 *58:28 3.22174e-05
*RES
1 *439:Y *58:28 49.5949 
2 *58:28 *440:B1 9.24915 
*END

*D_NET *59 0.0125918
*CONN
*I *444:A1 I *D sky130_fd_sc_hd__o21ai_0
*I *440:Y O *D sky130_fd_sc_hd__a21oi_1
*CAP
1 *444:A1 0
2 *440:Y 0
3 *59:18 0.00143647
4 *59:16 0.00188569
5 *59:6 0.00289631
6 *59:4 0.0024471
7 *59:6 *440:A1 9.18559e-06
8 *59:18 *444:A2 0.00180841
9 *59:18 *63:8 0.000477051
10 *59:18 *89:12 0.000109104
11 *59:18 *138:28 0.000820854
12 *401:C1 *59:16 1.09738e-05
13 *401:C1 *59:18 0
14 *15:6 *59:16 0.000113968
15 *42:12 *59:18 0.000566927
16 *42:22 *59:18 9.71323e-06
*RES
1 *440:Y *59:4 9.24915 
2 *59:4 *59:6 53.4107 
3 *59:6 *59:16 24.6419 
4 *59:16 *59:18 59.5521 
5 *59:18 *444:A1 13.7491 
*END

*D_NET *60 0.0139892
*CONN
*I *443:A2 I *D sky130_fd_sc_hd__o21a_1
*I *441:Y O *D sky130_fd_sc_hd__mux2i_1
*CAP
1 *443:A2 0
2 *441:Y 0.00211718
3 *60:62 0.00144714
4 *60:42 0.00356432
5 *60:42 *379:B 6.78308e-05
6 *60:42 *401:B2 3.65589e-05
7 *60:42 *441:A1 6.85758e-05
8 *60:42 *441:S 0.000125569
9 *60:42 *476:A0 0.0001673
10 *60:42 *590:CLK 0.00014399
11 *60:42 *663:DE 0.00018556
12 *60:42 *667:D 1.21461e-06
13 *60:42 *667:CLK 0.000199873
14 *60:42 *75:30 5.63882e-05
15 *60:42 *82:291 5.60804e-05
16 *60:42 *88:32 0.000259827
17 *60:42 *93:30 0.00027785
18 *60:42 *94:26 1.0126e-05
19 *60:42 *157:131 0.000235723
20 *60:42 *160:120 4.16588e-05
21 *60:42 *163:58 1.27831e-06
22 *60:42 *170:107 3.87022e-06
23 *60:42 *219:38 3.17436e-05
24 *60:42 *221:26 6.33836e-05
25 *60:42 *235:24 1.65872e-05
26 *60:42 *267:28 0.000255967
27 *60:42 *270:24 0.000553218
28 *60:42 *327:36 0.000120589
29 *60:42 *347:51 0.000134132
30 *60:42 *347:134 0.000663616
31 *60:62 *435:B2 0.000139079
32 *60:62 *443:B1 0.000209388
33 *60:62 *450:A1 0.000427522
34 *60:62 *467:A0 8.34608e-05
35 *60:62 *1205:A 0.00016553
36 *60:62 *62:8 2.54369e-05
37 *60:62 *64:10 0.000216882
38 *60:62 *130:52 0.000124521
39 *60:62 *172:18 1.62467e-05
40 *60:62 *182:197 0
41 *60:62 *208:32 0.000168323
42 *60:62 *218:32 0
43 *60:62 *234:56 0.000691806
44 *60:62 *263:22 0
45 *60:62 *275:36 2.06988e-05
46 *60:62 *350:240 0.00026163
47 *13:111 *60:62 0.000187247
48 *14:14 *60:62 4.19401e-06
49 *27:16 *60:62 0.000173094
50 *48:30 *60:62 0.000166985
*RES
1 *441:Y *60:42 49.9653 
2 *60:42 *60:62 43.0503 
3 *60:62 *443:A2 9.24915 
*END

*D_NET *61 0.000645413
*CONN
*I *443:B1 I *D sky130_fd_sc_hd__o21a_1
*I *442:Y O *D sky130_fd_sc_hd__a221oi_1
*CAP
1 *443:B1 0.000113522
2 *442:Y 0.000113522
3 *443:B1 *62:8 4.2372e-05
4 *443:B1 *218:32 0.000130777
5 *53:22 *443:B1 3.58321e-05
6 *60:62 *443:B1 0.000209388
*RES
1 *442:Y *443:B1 32.1327 
*END

*D_NET *62 0.00865645
*CONN
*I *444:A2 I *D sky130_fd_sc_hd__o21ai_0
*I *443:X O *D sky130_fd_sc_hd__o21a_1
*CAP
1 *444:A2 0.000562547
2 *443:X 0.00192821
3 *62:8 0.00249076
4 *444:A2 *63:8 0.00176809
5 *62:8 *350:240 6.90342e-06
6 *62:8 *350:255 2.23124e-05
7 *443:B1 *62:8 4.2372e-05
8 *27:16 *62:8 1.4091e-06
9 *59:18 *444:A2 0.00180841
10 *60:62 *62:8 2.54369e-05
*RES
1 *443:X *62:8 40.5389 
2 *62:8 *444:A2 45.8946 
*END

*D_NET *63 0.0106025
*CONN
*I *446:B1 I *D sky130_fd_sc_hd__o211ai_1
*I *444:Y O *D sky130_fd_sc_hd__o21ai_0
*CAP
1 *446:B1 0
2 *444:Y 0
3 *63:12 0.00147684
4 *63:8 0.00269971
5 *63:6 0.00122287
6 *63:8 *462:B1 0.000576328
7 *63:8 *551:A1 0.000544348
8 *63:8 *138:16 0
9 *63:12 dout[6] 0.000141764
10 *63:12 *446:C1 0.000216458
11 *63:12 *326:14 0.000559237
12 *444:A2 *63:8 0.00176809
13 *446:A2 *63:12 1.88152e-05
14 *462:A2 *63:8 9.82838e-06
15 *11:150 *63:12 0.00089116
16 *37:16 *63:8 0
17 *59:18 *63:8 0.000477051
*RES
1 *444:Y *63:6 13.7491 
2 *63:6 *63:8 49.1707 
3 *63:8 *63:12 47.3733 
4 *63:12 *446:B1 9.24915 
*END

*D_NET *64 0.0145705
*CONN
*I *446:C1 I *D sky130_fd_sc_hd__o211ai_1
*I *445:X O *D sky130_fd_sc_hd__a21o_1
*CAP
1 *446:C1 3.48133e-05
2 *445:X 0.000306318
3 *64:10 0.0028999
4 *64:8 0.0031714
5 *64:8 *183:40 1.2315e-05
6 *64:8 *185:26 2.58757e-05
7 *64:10 *402:A1 7.0714e-05
8 *64:10 *450:S0 0.000275402
9 *64:10 *454:B1 0.000275824
10 *64:10 *457:S1 8.20742e-05
11 *64:10 *479:S0 4.0605e-06
12 *64:10 *484:A3 0.000124157
13 *64:10 *80:160 0
14 *64:10 *80:188 0
15 *64:10 *132:22 0.000154271
16 *64:10 *167:117 1.22851e-05
17 *64:10 *178:12 0
18 *64:10 *208:32 0
19 *64:10 *237:22 0.000656001
20 *64:10 *290:22 0.000448669
21 *64:10 *340:50 4.64038e-06
22 *64:10 *351:328 0.000573895
23 *64:10 *366:57 0.000226049
24 *64:10 *366:79 0.000124259
25 *64:10 *366:88 0.000155519
26 *64:10 *366:147 0.000188649
27 *445:A1 *64:8 2.8443e-05
28 *445:A2 *64:10 1.15048e-05
29 *446:A2 *446:C1 0.000114584
30 *446:A2 *64:10 7.59261e-05
31 *470:A2 *64:10 0.000140018
32 *472:A2 *64:10 0.0001214
33 *11:150 *446:C1 3.95516e-05
34 *19:26 *64:10 0.000255336
35 *23:16 *64:10 0.00132531
36 *23:26 *64:10 0.00203684
37 *48:30 *64:10 0.000161139
38 *60:62 *64:10 0.000216882
39 *63:12 *446:C1 0.000216458
*RES
1 *445:X *64:8 18.3548 
2 *64:8 *64:10 95.2637 
3 *64:10 *446:C1 16.1364 
*END

*D_NET *65 0.000716609
*CONN
*I *448:A2 I *D sky130_fd_sc_hd__a21oi_1
*I *446:Y O *D sky130_fd_sc_hd__o211ai_1
*CAP
1 *448:A2 0.000131876
2 *446:Y 0.000131876
3 *448:A2 *448:B1 0.00015901
4 *448:A2 *178:12 9.32704e-05
5 *448:A2 *179:26 4.15661e-05
6 *448:A2 *264:30 0.00015901
*RES
1 *446:Y *448:A2 31.5781 
*END

*D_NET *66 0.00938531
*CONN
*I *448:B1 I *D sky130_fd_sc_hd__a21oi_1
*I *447:Y O *D sky130_fd_sc_hd__o21ai_0
*CAP
1 *448:B1 0.000776859
2 *447:Y 0.000919781
3 *66:20 0.00261512
4 *66:12 0.00275804
5 *448:B1 *179:26 0.000107496
6 *448:B1 *264:30 0.000368943
7 *66:20 *218:32 0
8 *66:20 *285:34 0
9 *411:C1 *66:12 0.00140804
10 *433:B1 *66:20 9.36156e-05
11 *448:A2 *448:B1 0.00015901
12 *13:128 *66:12 6.67989e-05
13 *20:32 *66:12 0
14 *28:8 *66:20 0.000111605
*RES
1 *447:Y *66:12 45.8618 
2 *66:12 *66:20 39.6868 
3 *66:20 *448:B1 28.2745 
*END

*D_NET *67 0.00801055
*CONN
*I *487:B1 I *D sky130_fd_sc_hd__a21oi_1
*I *486:Y O *D sky130_fd_sc_hd__o21ai_0
*CAP
1 *487:B1 0.00144841
2 *486:Y 0.000942101
3 *67:20 0.00239051
4 *487:B1 *145:22 0.000247983
5 *487:B1 *266:42 0.00162325
6 *487:B1 *277:34 0.000149537
7 *67:20 *474:B2 3.809e-06
8 *67:20 *475:A2 0.000111802
9 *67:20 *486:A1 1.5714e-05
10 *67:20 *549:A2 0
11 *67:20 *142:12 0
12 *67:20 *266:42 0.000349561
13 *67:20 *350:408 0
14 *4:26 *67:20 0.000114584
15 *51:38 *67:20 0.000613293
*RES
1 *486:Y *67:20 49.0794 
2 *67:20 *487:B1 39.4538 
*END

*D_NET *68 0.0120384
*CONN
*I *453:A0 I *D sky130_fd_sc_hd__mux4_2
*I *449:X O *D sky130_fd_sc_hd__mux4_2
*CAP
1 *453:A0 0.000760965
2 *449:X 0.00189249
3 *68:38 0.00265346
4 *453:A0 *630:CLK 0.000134746
5 *453:A0 *660:CLK 0
6 *453:A0 *71:24 0
7 *453:A0 *72:30 0.000109127
8 *453:A0 *82:240 2.32537e-05
9 *453:A0 *82:268 4.33937e-05
10 *453:A0 *170:133 0.000142385
11 *453:A0 *336:113 0
12 *68:38 *421:B2 0.00011195
13 *68:38 *457:A2 9.4385e-05
14 *68:38 *457:S0 1.79223e-05
15 *68:38 *465:A3 0.00150546
16 *68:38 *481:A1 7.86825e-06
17 *68:38 *649:DE 0.000176006
18 *68:38 *655:DE 0.000492087
19 *68:38 *664:DE 2.82171e-06
20 *68:38 *170:133 5.99155e-05
21 *68:38 *182:14 0.000307197
22 *68:38 *182:133 0.00011587
23 *68:38 *185:26 1.48618e-05
24 *68:38 *225:34 0.000782895
25 *68:38 *247:28 0.000702121
26 *68:38 *260:26 8.31531e-05
27 *68:38 *279:38 2.47911e-05
28 *68:38 *299:60 1.3813e-05
29 *68:38 *336:58 0.00174273
30 *68:38 *350:442 1.02986e-05
31 *31:28 *453:A0 1.24478e-05
*RES
1 *449:X *68:38 47.0668 
2 *68:38 *453:A0 31.3601 
*END

*D_NET *69 0.0158091
*CONN
*I *453:A1 I *D sky130_fd_sc_hd__mux4_2
*I *450:X O *D sky130_fd_sc_hd__mux4_2
*CAP
1 *453:A1 0
2 *450:X 0.00449086
3 *69:26 0.00449086
4 *69:26 *410:A1 0.000361595
5 *69:26 *437:A1 0.000106353
6 *69:26 *450:S0 0.000107496
7 *69:26 *450:S1 6.08467e-05
8 *69:26 *607:D 4.28861e-05
9 *69:26 *1197:A 0.000129091
10 *69:26 *70:30 0.000148589
11 *69:26 *82:174 0.000114559
12 *69:26 *82:176 1.07248e-05
13 *69:26 *125:28 0.0023263
14 *69:26 *211:24 0.000106353
15 *69:26 *212:28 6.94808e-05
16 *69:26 *220:28 0.00107446
17 *69:26 *247:28 0.00159392
18 *69:26 *265:68 5.01835e-05
19 *69:26 *334:24 0.000162183
20 *69:26 *336:113 3.55859e-05
21 *69:26 *336:134 9.04963e-05
22 *69:26 *359:79 0.000234851
23 *23:16 *69:26 1.4091e-06
*RES
1 *450:X *69:26 48.5692 
2 *69:26 *453:A1 13.7491 
*END

*D_NET *70 0.0156973
*CONN
*I *453:A3 I *D sky130_fd_sc_hd__mux4_2
*I *451:X O *D sky130_fd_sc_hd__mux4_2
*CAP
1 *453:A3 0.000304094
2 *451:X 0.00337959
3 *70:30 0.00368369
4 *453:A3 *453:A2 0.000154145
5 *453:A3 *453:S1 6.08467e-05
6 *453:A3 *82:240 0.000158451
7 *453:A3 *82:268 0
8 *70:30 *380:A 9.21475e-05
9 *70:30 *457:A2 0.000246944
10 *70:30 *536:A0 0.000314573
11 *70:30 *547:C1 0
12 *70:30 *593:D 3.75685e-05
13 *70:30 *630:CLK 1.58733e-05
14 *70:30 *136:26 0.000781061
15 *70:30 *148:28 3.17152e-05
16 *70:30 *220:28 0.000994562
17 *70:30 *220:64 0.00023984
18 *70:30 *242:18 0.0016829
19 *70:30 *258:24 4.23622e-05
20 *70:30 *261:34 0.000567289
21 *70:30 *266:28 0.000133754
22 *70:30 *288:40 1.38823e-05
23 *70:30 *294:32 0.000624105
24 *70:30 *312:20 8.13122e-05
25 *70:30 *329:28 0.000170879
26 *70:30 *334:54 0.000422015
27 *70:30 *359:79 4.76279e-05
28 *31:58 *70:30 6.54943e-06
29 *35:28 *70:30 0.00126089
30 *69:26 *70:30 0.000148589
*RES
1 *451:X *70:30 47.3155 
2 *70:30 *453:A3 19.6569 
*END

*D_NET *71 0.0124229
*CONN
*I *453:A2 I *D sky130_fd_sc_hd__mux4_2
*I *452:X O *D sky130_fd_sc_hd__mux4_2
*CAP
1 *453:A2 0.000218433
2 *452:X 0.000908737
3 *71:24 0.00178707
4 *71:14 0.00247737
5 *453:A2 *453:S1 0.000123796
6 *71:14 *469:A2 0.000104052
7 *71:14 *481:A1 1.5714e-05
8 *71:14 *481:A2 0.000573433
9 *71:14 *91:16 2.61574e-05
10 *71:14 *93:30 0.0010822
11 *71:14 *262:26 0.00107698
12 *71:14 *266:42 1.9562e-05
13 *71:24 *414:A1 2.24412e-05
14 *71:24 *660:CLK 4.20924e-05
15 *71:24 *666:CLK 0.000237211
16 *71:24 *167:86 3.55694e-05
17 *71:24 *167:97 5.79233e-05
18 *71:24 *186:28 7.47905e-05
19 *71:24 *212:56 5.21758e-06
20 *71:24 *215:40 1.5714e-05
21 *71:24 *222:24 5.74984e-05
22 *71:24 *260:26 1.5714e-05
23 *71:24 *306:28 6.34419e-05
24 *71:24 *336:113 0.000683935
25 *71:24 *354:40 2.18821e-05
26 *71:24 *354:49 0.000155429
27 *71:24 *354:81 0.00017196
28 *71:24 *356:63 0.000153588
29 *71:24 *357:27 0.000151013
30 *71:24 *357:35 5.99493e-05
31 *71:24 *357:80 2.02035e-05
32 *71:24 *357:95 0.000127031
33 *378:D_N *71:24 6.53279e-05
34 *453:A0 *71:24 0
35 *453:A3 *453:A2 0.000154145
36 *470:A1 *71:14 0.000144086
37 *11:44 *71:24 2.27118e-06
38 *11:60 *71:24 0.000166886
39 *12:26 *71:14 0
40 *13:62 *71:24 3.11933e-06
41 *31:28 *71:24 0.000298642
42 *36:14 *71:14 0.00087053
43 *38:16 *71:24 0.000131792
*RES
1 *452:X *71:14 27.4498 
2 *71:14 *71:24 46.6182 
3 *71:24 *453:A2 17.2456 
*END

*D_NET *72 0.0110063
*CONN
*I *454:B1 I *D sky130_fd_sc_hd__o21ai_0
*I *453:X O *D sky130_fd_sc_hd__mux4_2
*CAP
1 *454:B1 0.00125852
2 *453:X 0.00194171
3 *72:30 0.00320022
4 *454:B1 *472:B1 6.78549e-05
5 *454:B1 *484:A3 4.84593e-05
6 *454:B1 *649:DE 3.84921e-05
7 *454:B1 *80:160 0.000179059
8 *454:B1 *132:22 5.20059e-05
9 *454:B1 *133:12 0
10 *454:B1 *182:152 0.000456337
11 *454:B1 *233:34 0.000113292
12 *454:B1 *279:62 3.56604e-05
13 *454:B1 *304:30 0
14 *72:30 *397:A0 0.000463878
15 *72:30 *586:DE 0.000195945
16 *72:30 *87:30 0.000590315
17 *72:30 *167:117 3.74635e-05
18 *72:30 *170:133 0.000275065
19 *72:30 *222:24 0.000180302
20 *72:30 *287:24 3.60286e-06
21 *72:30 *322:48 9.4395e-05
22 *72:30 *330:48 0.00109072
23 *72:30 *359:27 6.09999e-05
24 *72:30 *359:136 7.39015e-05
25 *453:A0 *72:30 0.000109127
26 *470:A2 *454:B1 1.58588e-05
27 *485:B1_N *454:B1 0.000147312
28 *64:10 *454:B1 0.000275824
*RES
1 *453:X *72:30 41.3891 
2 *72:30 *454:B1 45.9951 
*END

*D_NET *75 0.0179854
*CONN
*I *461:A2 I *D sky130_fd_sc_hd__mux4_2
*I *457:X O *D sky130_fd_sc_hd__mux4_2
*CAP
1 *461:A2 0
2 *457:X 0.00337572
3 *75:30 0.00337572
4 *75:30 *457:A2 0.000120627
5 *75:30 *82:291 4.45912e-05
6 *75:30 *133:12 2.60879e-06
7 *75:30 *163:85 0.000231479
8 *75:30 *167:167 6.66174e-05
9 *75:30 *169:27 6.5419e-05
10 *75:30 *219:38 5.54929e-05
11 *75:30 *229:32 0.000133334
12 *75:30 *233:34 4.75721e-06
13 *75:30 *236:32 0.00226265
14 *75:30 *244:24 0.000152957
15 *75:30 *257:38 0.000263228
16 *75:30 *270:24 0.00131486
17 *75:30 *304:30 3.5534e-06
18 *75:30 *319:36 0.000153427
19 *75:30 *336:159 1.82501e-05
20 *75:30 *347:134 0.00102727
21 *75:30 *350:414 0.000462918
22 *75:30 *350:442 0.000219497
23 *3:93 *75:30 3.41074e-05
24 *4:26 *75:30 0.00161323
25 *40:26 *75:30 0.00274287
26 *54:22 *75:30 0.000183862
27 *60:42 *75:30 5.63882e-05
*RES
1 *457:X *75:30 41.5631 
2 *75:30 *461:A2 9.24915 
*END

*D_NET *76 0.00749921
*CONN
*I *461:A0 I *D sky130_fd_sc_hd__mux4_2
*I *458:X O *D sky130_fd_sc_hd__mux4_2
*CAP
1 *461:A0 0.00064797
2 *458:X 5.0318e-05
3 *76:16 0.00200106
4 *76:8 0.00140341
5 *461:A0 *539:A0 0.000197163
6 *461:A0 *539:A1 4.12833e-05
7 *461:A0 *661:DE 0.000107496
8 *461:A0 *125:28 8.79248e-05
9 *461:A0 *163:93 0.000158451
10 *461:A0 *170:107 0.000217624
11 *461:A0 *332:32 1.49713e-05
12 *461:A0 *365:75 2.27901e-06
13 *76:8 *645:CLK 2.16355e-05
14 *76:16 *404:S 8.92568e-06
15 *76:16 *423:A0 2.1203e-06
16 *76:16 *495:A1 7.58067e-06
17 *76:16 *539:A0 0
18 *76:16 *629:CLK 0.000320549
19 *76:16 *685:CLK 0.000137784
20 *76:16 *1204:A 6.8735e-05
21 *76:16 *101:14 0.000495948
22 *76:16 *112:22 0.000257384
23 *76:16 *170:107 1.27831e-06
24 *76:16 *182:90 0
25 *76:16 *218:32 1.16906e-05
26 *76:16 *297:46 6.99044e-06
27 *76:16 *301:30 0.000135123
28 *76:16 *350:106 0
29 *76:16 *364:61 0.000355636
30 *76:16 *364:96 0.000342871
31 *76:16 *367:40 0.000188743
32 *41:16 *76:16 9.63027e-05
33 *54:22 *76:16 0.000109969
*RES
1 *458:X *76:8 14.4725 
2 *76:8 *76:16 38.2887 
3 *76:16 *461:A0 28.6966 
*END

*D_NET *77 0.0124597
*CONN
*I *461:A3 I *D sky130_fd_sc_hd__mux4_2
*I *459:X O *D sky130_fd_sc_hd__mux4_2
*CAP
1 *461:A3 0.000709756
2 *459:X 0.00226124
3 *77:14 0.002971
4 *461:A3 *417:A0 7.70172e-06
5 *461:A3 *458:A0 1.31649e-05
6 *461:A3 *656:DE 2.16355e-05
7 *461:A3 *1203:A 1.82679e-05
8 *461:A3 *163:93 2.57986e-05
9 *461:A3 *182:90 0.000725764
10 *461:A3 *229:32 2.03809e-05
11 *461:A3 *244:24 0.000137302
12 *461:A3 *245:20 0.00037198
13 *461:A3 *272:40 0.000157614
14 *461:A3 *289:20 0.000110297
15 *461:A3 *351:109 8.06767e-05
16 *77:14 *468:A2 0.00116187
17 *77:14 *676:DE 7.97971e-06
18 *77:14 *166:127 6.28953e-06
19 *77:14 *212:28 0.000685427
20 *77:14 *228:40 0.00141791
21 *77:14 *265:30 0.000223447
22 *77:14 *328:32 0.00024135
23 *77:14 *331:30 3.55579e-05
24 *77:14 *350:191 0.000358149
25 *77:14 *350:661 0.000160024
26 *398:B *77:14 0.000310387
27 *11:38 *461:A3 0.000218725
*RES
1 *459:X *77:14 47.5434 
2 *77:14 *461:A3 48.0733 
*END

*D_NET *78 0.0185152
*CONN
*I *496:B I *D sky130_fd_sc_hd__nand2_1
*I *488:Y O *D sky130_fd_sc_hd__nand2_1
*CAP
1 *496:B 0.000434276
2 *488:Y 0.00500695
3 *78:26 0.00544122
4 *496:B *100:6 0.00172581
5 *496:B *180:28 0.000531734
6 *496:B *354:10 0.000243918
7 *78:26 *507:B1 4.35097e-05
8 *78:26 *509:A1 0.000431415
9 *78:26 *516:B 1.56407e-05
10 *78:26 *527:A 0
11 *78:26 *538:A2 2.84373e-05
12 *78:26 *566:DE 0
13 *78:26 *80:39 7.93457e-06
14 *78:26 *82:41 0.000755242
15 *78:26 *96:22 0
16 *78:26 *107:24 5.80433e-05
17 *78:26 *114:10 0
18 *78:26 *114:55 0.000155983
19 *78:26 *120:39 0.000188075
20 *78:26 *123:32 0
21 *78:26 *309:32 0.000490038
22 *384:B *78:26 0
23 *430:A2 *78:26 1.5714e-05
24 *22:32 *78:26 0.00242115
25 *44:30 *78:26 0.000520083
*RES
1 *488:Y *78:26 46.7906 
2 *78:26 *496:B 39.068 
*END

*D_NET *80 0.0561509
*CONN
*I *579:D I *D sky130_fd_sc_hd__edfxtp_1
*I *558:D I *D sky130_fd_sc_hd__edfxtp_1
*I *632:D I *D sky130_fd_sc_hd__edfxtp_1
*I *639:D I *D sky130_fd_sc_hd__edfxtp_1
*I *667:D I *D sky130_fd_sc_hd__edfxtp_1
*I *593:D I *D sky130_fd_sc_hd__edfxtp_1
*I *572:D I *D sky130_fd_sc_hd__edfxtp_1
*I *697:D I *D sky130_fd_sc_hd__edfxtp_1
*I *586:D I *D sky130_fd_sc_hd__edfxtp_1
*I *690:D I *D sky130_fd_sc_hd__edfxtp_1
*I *660:D I *D sky130_fd_sc_hd__edfxtp_1
*I *668:D I *D sky130_fd_sc_hd__edfxtp_1
*I *565:D I *D sky130_fd_sc_hd__edfxtp_1
*I *600:D I *D sky130_fd_sc_hd__edfxtp_1
*I *653:D I *D sky130_fd_sc_hd__edfxtp_1
*I *646:D I *D sky130_fd_sc_hd__edfxtp_1
*I *390:X O *D sky130_fd_sc_hd__and2_0
*CAP
1 *579:D 0
2 *558:D 0.000421054
3 *632:D 0.000604201
4 *639:D 1.13064e-05
5 *667:D 0.000293832
6 *593:D 0.000838764
7 *572:D 0
8 *697:D 0.000483355
9 *586:D 0
10 *690:D 0.000750427
11 *660:D 2.89086e-05
12 *668:D 0.000269166
13 *565:D 3.95161e-05
14 *600:D 0
15 *653:D 2.1443e-05
16 *646:D 0
17 *390:X 0
18 *80:270 0.000767497
19 *80:245 0.000989805
20 *80:234 0.000357501
21 *80:215 0.00126205
22 *80:188 0.00187129
23 *80:160 0.000971857
24 *80:150 0.00164554
25 *80:137 0.00113449
26 *80:110 0.00172843
27 *80:93 0.00270274
28 *80:78 0.00235679
29 *80:58 0.0011813
30 *80:39 0.00318831
31 *80:18 0.00220003
32 *80:8 0.000839307
33 *80:6 0.000628314
34 *558:D *467:A0 0.000195304
35 *558:D *156:58 6.15039e-05
36 *558:D *156:77 3.75221e-05
37 *558:D *334:24 0.000282949
38 *558:D *368:25 3.46584e-05
39 *558:D *368:29 0.000171429
40 *565:D *104:39 9.12033e-06
41 *593:D *604:DE 7.13655e-06
42 *593:D *125:28 0.00169244
43 *593:D *168:84 3.42384e-05
44 *593:D *200:10 5.34249e-06
45 *593:D *220:28 0.000377777
46 *593:D *220:64 0.000123539
47 *593:D *266:28 0.00055633
48 *593:D *294:32 1.24546e-05
49 *593:D *296:28 1.5714e-05
50 *632:D *663:DE 2.65301e-05
51 *632:D *169:81 2.56607e-05
52 *632:D *300:22 0.000190999
53 *632:D *321:46 2.19138e-05
54 *632:D *340:50 9.81631e-05
55 *632:D *366:157 0.000376498
56 *639:D *169:81 3.15447e-05
57 *660:D *660:DE 3.15447e-05
58 *660:D *336:10 5.48187e-06
59 *667:D *667:DE 0.000134686
60 *667:D *161:162 9.49135e-05
61 *667:D *221:26 1.02924e-05
62 *667:D *365:10 1.21461e-06
63 *668:D *688:D 0.000228096
64 *668:D *109:14 0.000205317
65 *668:D *116:27 0.00015324
66 *668:D *120:12 3.14055e-05
67 *668:D *120:27 1.9101e-05
68 *668:D *355:20 3.56494e-05
69 *668:D *355:53 7.9431e-05
70 *668:D *355:117 3.37714e-06
71 *690:D *481:A3 2.25583e-07
72 *690:D *578:D 0.000847678
73 *690:D *578:DE 6.95285e-05
74 *690:D *690:DE 0.000554138
75 *690:D *695:D 0.000667667
76 *690:D *188:30 0
77 *690:D *358:20 1.05456e-05
78 *690:D *358:77 3.58315e-06
79 *697:D *572:DE 0.000217686
80 *697:D *158:69 3.97006e-05
81 *697:D *160:81 0.000106427
82 *697:D *254:22 4.92214e-05
83 *697:D *293:24 4.03324e-05
84 *80:8 *377:A 1.05601e-05
85 *80:8 *82:111 0
86 *80:8 *96:16 1.95954e-05
87 *80:8 *123:32 5.42506e-06
88 *80:8 *139:16 0
89 *80:8 *152:20 0.000404119
90 *80:8 *173:20 0.000779843
91 *80:8 *355:134 0
92 *80:18 *82:6 6.37652e-06
93 *80:18 *96:16 7.65164e-06
94 *80:18 *96:22 0.000210442
95 *80:18 *317:22 7.86589e-05
96 *80:39 *494:B 0
97 *80:39 *530:B 0.000153427
98 *80:39 *595:DE 9.49135e-05
99 *80:39 *646:DE 9.13061e-05
100 *80:39 *1172:A 0.000187751
101 *80:39 *81:249 0.000148832
102 *80:39 *82:6 2.84467e-05
103 *80:39 *96:22 0.000278948
104 *80:39 *114:55 6.40413e-05
105 *80:39 *139:16 0.00014074
106 *80:39 *157:20 0.000227783
107 *80:39 *181:55 1.74599e-05
108 *80:39 *346:32 6.58567e-05
109 *80:39 *350:57 0.000150256
110 *80:39 *351:37 7.81382e-05
111 *80:58 *458:S0 0.00074701
112 *80:58 *505:A2 1.05982e-05
113 *80:58 *510:A1 6.50727e-05
114 *80:58 *518:A 6.16319e-05
115 *80:58 *522:A 0.000278694
116 *80:58 *600:CLK 7.92757e-06
117 *80:58 *116:64 9.61496e-05
118 *80:58 *117:58 0.000937779
119 *80:58 *157:20 0.00066508
120 *80:58 *170:14 0.000419951
121 *80:58 *346:109 8.44087e-05
122 *80:58 *351:37 0.000183275
123 *80:58 *351:46 0.000347602
124 *80:78 *688:D 1.91391e-05
125 *80:78 *355:134 5.21758e-06
126 *80:93 *379:B 0.000249108
127 *80:93 *514:A 0.00142814
128 *80:93 *114:55 0.00066562
129 *80:93 *153:22 2.18682e-05
130 *80:93 *158:107 8.07026e-06
131 *80:93 *167:86 0.000118722
132 *80:93 *241:48 4.4492e-05
133 *80:93 *310:36 0.000211779
134 *80:93 *311:28 0.00105517
135 *80:93 *343:18 7.41739e-06
136 *80:93 *344:22 0.000120235
137 *80:93 *346:62 0.000767406
138 *80:110 *158:69 0.000201048
139 *80:110 *226:36 0.000558742
140 *80:110 *241:48 1.58137e-05
141 *80:110 *310:36 0.000109708
142 *80:137 *397:A0 2.89423e-05
143 *80:137 *578:DE 0.000186229
144 *80:137 *586:CLK 0.000111802
145 *80:137 *695:D 0.000102966
146 *80:137 *81:124 2.5034e-05
147 *80:137 *155:93 3.36996e-05
148 *80:137 *359:35 0.000165969
149 *80:150 *586:DE 8.06219e-05
150 *80:150 *160:81 4.2372e-05
151 *80:150 *232:20 6.34027e-05
152 *80:150 *359:27 3.61378e-05
153 *80:150 *359:35 8.18912e-05
154 *80:160 *572:DE 4.26318e-05
155 *80:160 *649:DE 0.000184223
156 *80:160 *182:152 2.85695e-05
157 *80:160 *209:52 0.00018702
158 *80:160 *254:22 1.64291e-05
159 *80:188 *167:117 3.68532e-05
160 *80:188 *209:32 3.99363e-05
161 *80:188 *209:52 0.000313923
162 *80:188 *242:18 0.000175351
163 *80:188 *290:22 1.67484e-05
164 *80:215 *401:B2 0.000477389
165 *80:215 *125:28 0.000447827
166 *80:215 *160:120 0.000176478
167 *80:215 *161:162 6.68858e-05
168 *80:215 *167:117 4.71545e-05
169 *80:215 *217:44 3.36269e-05
170 *80:215 *242:18 0.000127444
171 *80:215 *267:28 9.55496e-05
172 *80:234 *607:D 0.000271299
173 *80:234 *663:DE 3.27763e-05
174 *80:234 *161:162 3.9324e-05
175 *80:245 *607:D 6.56339e-05
176 *80:245 *291:26 8.62625e-06
177 *80:270 *579:DE 0.000421843
178 *80:270 *607:D 0.000590489
179 *80:270 *291:26 6.85778e-05
180 *80:270 *366:192 1.91391e-05
181 *383:A1 *80:8 0.0003841
182 *383:A2 *80:8 7.77309e-06
183 *428:A2 *80:8 1.62206e-05
184 *428:A2 *80:18 5.41164e-05
185 *446:A2 *80:270 3.3239e-06
186 *454:B1 *80:160 0.000179059
187 *510:A2 *80:58 0.000145984
188 *3:46 *668:D 9.67837e-05
189 *3:46 *80:8 0.000299553
190 *3:46 *80:78 1.26179e-05
191 *6:87 *80:39 6.19578e-05
192 *12:30 *80:215 7.15683e-05
193 *12:30 *80:234 0.000168323
194 *12:30 *80:245 2.31772e-05
195 *12:30 *80:270 2.43676e-05
196 *21:20 *632:D 0
197 *24:16 *80:18 0.000220748
198 *31:28 *660:D 1.91246e-05
199 *31:28 *80:93 0.000181996
200 *47:12 *80:39 0.00034697
201 *48:10 *80:160 0.000387651
202 *48:10 *80:188 0
203 *56:28 *690:D 2.80374e-05
204 *60:42 *667:D 1.21461e-06
205 *64:10 *80:160 0
206 *64:10 *80:188 0
207 *70:30 *593:D 3.75685e-05
208 *78:26 *80:39 7.93457e-06
*RES
1 *390:X *80:6 13.7491 
2 *80:6 *80:8 22.1794 
3 *80:8 *80:18 12.6649 
4 *80:18 *646:D 9.24915 
5 *80:18 *80:39 37.7638 
6 *80:39 *653:D 14.1229 
7 *80:39 *80:58 49.4217 
8 *80:58 *600:D 9.24915 
9 *80:8 *565:D 14.8557 
10 *80:6 *80:78 1.52666 
11 *80:78 *668:D 24.8828 
12 *80:78 *80:93 9.15543 
13 *80:93 *660:D 17.8703 
14 *80:93 *80:110 4.87198 
15 *80:110 *690:D 40.0852 
16 *80:110 *80:137 15.5625 
17 *80:137 *586:D 9.24915 
18 *80:137 *80:150 19.8239 
19 *80:150 *80:160 19.8928 
20 *80:160 *697:D 29.9005 
21 *80:160 *572:D 9.24915 
22 *80:150 *80:188 10.7599 
23 *80:188 *593:D 23.7367 
24 *80:188 *80:215 19.2373 
25 *80:215 *667:D 28.5116 
26 *80:215 *80:234 8.89128 
27 *80:234 *639:D 14.1229 
28 *80:234 *80:245 1.41674 
29 *80:245 *632:D 37.4481 
30 *80:245 *80:270 16.7133 
31 *80:270 *558:D 22.6561 
32 *80:270 *579:D 9.24915 
*END

*D_NET *81 0.048577
*CONN
*I *638:D I *D sky130_fd_sc_hd__edfxtp_1
*I *645:D I *D sky130_fd_sc_hd__edfxtp_1
*I *652:D I *D sky130_fd_sc_hd__edfxtp_1
*I *599:D I *D sky130_fd_sc_hd__edfxtp_1
*I *631:D I *D sky130_fd_sc_hd__edfxtp_1
*I *564:D I *D sky130_fd_sc_hd__edfxtp_1
*I *696:D I *D sky130_fd_sc_hd__edfxtp_1
*I *571:D I *D sky130_fd_sc_hd__edfxtp_1
*I *578:D I *D sky130_fd_sc_hd__edfxtp_1
*I *585:D I *D sky130_fd_sc_hd__edfxtp_1
*I *703:D I *D sky130_fd_sc_hd__edfxtp_1
*I *666:D I *D sky130_fd_sc_hd__edfxtp_1
*I *659:D I *D sky130_fd_sc_hd__edfxtp_1
*I *606:D I *D sky130_fd_sc_hd__edfxtp_1
*I *689:D I *D sky130_fd_sc_hd__edfxtp_1
*I *592:D I *D sky130_fd_sc_hd__edfxtp_1
*I *389:X O *D sky130_fd_sc_hd__and2_0
*CAP
1 *638:D 0.000542799
2 *645:D 0.000674599
3 *652:D 0
4 *599:D 7.05828e-05
5 *631:D 8.92776e-05
6 *564:D 0.000145238
7 *696:D 0
8 *571:D 0.000380269
9 *578:D 0.000474286
10 *585:D 0
11 *703:D 0.000124597
12 *666:D 0
13 *659:D 0.000219288
14 *606:D 6.3539e-05
15 *689:D 0.000744668
16 *592:D 0.000146389
17 *389:X 0.000369312
18 *81:262 0.00206037
19 *81:249 0.0022286
20 *81:226 0.00197941
21 *81:202 0.00133936
22 *81:177 0.00155474
23 *81:150 0.00103248
24 *81:131 0.000861344
25 *81:124 0.000686524
26 *81:101 0.000891863
27 *81:95 0.000764268
28 *81:84 0.00057487
29 *81:69 0.00227396
30 *81:27 0.00131262
31 *81:25 0.00276187
32 *81:12 0.000970697
33 *81:6 0.00143794
34 *564:D *431:A1 0.000119745
35 *564:D *564:DE 5.39913e-05
36 *564:D *110:40 0.000118796
37 *571:D *686:DE 0.000137679
38 *571:D *158:69 0.00022857
39 *571:D *160:81 0
40 *571:D *299:90 0.00014328
41 *578:D *578:DE 0.00037319
42 *578:D *188:30 1.10886e-06
43 *578:D *260:26 9.24534e-06
44 *578:D *299:60 0.000207363
45 *592:D *96:16 1.04345e-05
46 *592:D *168:101 8.11133e-05
47 *599:D *599:DE 8.06219e-05
48 *606:D *606:DE 8.06219e-05
49 *606:D *116:27 1.43041e-05
50 *631:D *631:CLK 1.55025e-05
51 *631:D *168:84 2.81047e-05
52 *638:D *594:DE 0.000189558
53 *638:D *162:107 0.000171925
54 *638:D *169:46 3.31882e-05
55 *638:D *328:52 6.11074e-05
56 *645:D *570:DE 8.22935e-05
57 *645:D *594:DE 0.000252389
58 *645:D *645:DE 7.20605e-05
59 *645:D *673:DE 0
60 *645:D *101:14 3.51067e-05
61 *645:D *155:198 0.000294321
62 *645:D *170:41 0.000405988
63 *645:D *350:134 0.000107731
64 *645:D *367:16 1.80208e-05
65 *659:D *659:DE 0.000129042
66 *659:D *659:CLK 2.70033e-05
67 *659:D *666:CLK 1.07248e-05
68 *659:D *125:28 0.000308892
69 *659:D *167:167 1.34445e-05
70 *659:D *336:134 0.000197226
71 *659:D *336:159 0.000135666
72 *689:D *528:A1 0.000234086
73 *689:D *529:A 2.95884e-05
74 *689:D *116:29 7.90605e-05
75 *689:D *117:37 0.000107496
76 *689:D *157:34 0.000211436
77 *689:D *157:48 0.000123582
78 *689:D *167:14 2.15656e-05
79 *703:D *703:CLK 5.04829e-06
80 *703:D *156:87 0.000158136
81 *703:D *242:18 2.77625e-06
82 *703:D *359:54 5.2153e-05
83 *703:D *359:65 1.94614e-05
84 *81:6 *361:20 0.000172018
85 *81:6 *361:28 2.57847e-05
86 *81:12 *543:S 0.000182132
87 *81:12 *569:DE 4.62945e-05
88 *81:12 *700:DE 7.1092e-05
89 *81:12 *1200:A 5.45571e-05
90 *81:12 *82:10 0.000237745
91 *81:12 *82:92 1.72092e-05
92 *81:12 *139:16 2.31487e-05
93 *81:12 *155:146 0.000121049
94 *81:25 *82:155 2.61955e-05
95 *81:25 *115:35 0.000108016
96 *81:25 *116:29 0.000247411
97 *81:27 *576:CLK 0.000162581
98 *81:27 *115:35 0.00021615
99 *81:27 *116:29 0.000961792
100 *81:27 *157:30 1.86084e-05
101 *81:27 *157:34 7.09666e-06
102 *81:27 *355:70 0.000182142
103 *81:69 *377:A 0
104 *81:69 *543:S 0.000321479
105 *81:69 *82:174 0.00010936
106 *81:69 *97:16 0.000530549
107 *81:69 *182:47 0.000169576
108 *81:69 *182:64 0.000108798
109 *81:69 *220:28 0.000473199
110 *81:69 *298:30 1.43041e-05
111 *81:69 *340:12 0.000500442
112 *81:69 *346:32 0.000564082
113 *81:69 *351:127 0.000281986
114 *81:84 *82:174 1.82679e-05
115 *81:95 *590:DE 7.69356e-05
116 *81:95 *631:CLK 6.3657e-05
117 *81:95 *666:DE 3.39728e-05
118 *81:95 *82:268 5.78435e-05
119 *81:95 *168:84 5.51483e-06
120 *81:95 *170:107 7.31578e-05
121 *81:95 *297:24 0.000131864
122 *81:101 *631:CLK 0.000114694
123 *81:101 *156:77 0
124 *81:101 *268:30 0.000184624
125 *81:101 *319:36 0
126 *81:101 *359:65 0.000154244
127 *81:124 *397:A0 0.000173407
128 *81:124 *585:DE 3.9309e-05
129 *81:124 *695:D 5.10474e-05
130 *81:124 *155:93 0
131 *81:124 *156:77 0
132 *81:124 *156:87 3.26735e-05
133 *81:124 *268:52 0.000607863
134 *81:124 *302:24 6.20419e-06
135 *81:124 *311:28 7.98381e-05
136 *81:124 *359:54 1.42793e-06
137 *81:131 *585:DE 3.90433e-05
138 *81:131 *302:24 3.03316e-05
139 *81:150 *233:34 8.41516e-05
140 *81:150 *302:24 0.000200996
141 *81:177 *696:CLK 6.08467e-05
142 *81:177 *158:69 0.000288928
143 *81:177 *241:48 5.22884e-05
144 *81:177 *293:24 0.000224863
145 *81:177 *322:48 8.76387e-05
146 *81:177 *359:12 1.80208e-05
147 *81:177 *359:27 9.12416e-06
148 *81:202 *401:B2 0.000110829
149 *81:202 *125:28 0.000855989
150 *81:202 *168:84 0.000177764
151 *81:202 *226:36 0.000470102
152 *81:202 *263:34 7.99717e-05
153 *81:202 *295:22 9.34101e-05
154 *81:226 *618:CLK 0.000107101
155 *81:226 *651:DE 4.61962e-05
156 *81:226 *115:35 0.00022794
157 *81:226 *116:29 0.00060961
158 *81:226 *361:20 5.04829e-06
159 *81:249 *1204:A 8.5176e-06
160 *81:249 *114:55 7.40684e-06
161 *81:249 *115:35 9.97539e-05
162 *81:249 *116:29 0.000263285
163 *81:249 *118:18 8.23459e-05
164 *81:249 *155:198 0.000152535
165 *81:249 *156:46 0.000398966
166 *81:249 *181:55 6.03122e-05
167 *81:249 *346:14 3.93647e-06
168 *81:249 *346:32 1.07576e-06
169 *81:262 *458:A1 7.89747e-05
170 *81:262 *652:DE 3.39728e-05
171 *81:262 *652:CLK 5.6516e-06
172 *81:262 *681:DE 2.90638e-06
173 *81:262 *281:32 9.24261e-05
174 *690:D *578:D 0.000847678
175 *12:30 *81:202 0.000705498
176 *21:18 *638:D 9.12033e-06
177 *21:20 *571:D 0
178 *21:20 *81:177 0
179 *22:32 *81:12 0.000268247
180 *23:26 *81:202 0.000707886
181 *47:12 *81:12 0.000761653
182 *53:22 *645:D 0
183 *80:39 *81:249 0.000148832
184 *80:137 *81:124 2.5034e-05
*RES
1 *389:X *81:6 14.964 
2 *81:6 *81:12 28.2726 
3 *81:12 *592:D 12.4683 
4 *81:12 *81:25 12.5275 
5 *81:25 *81:27 18.6497 
6 *81:27 *689:D 32.5619 
7 *81:27 *606:D 15.3044 
8 *81:25 *81:69 27.2927 
9 *81:69 *659:D 26.5471 
10 *81:69 *81:84 1.5553 
11 *81:84 *666:D 9.24915 
12 *81:84 *81:95 12.8403 
13 *81:95 *81:101 10.4404 
14 *81:101 *703:D 17.0561 
15 *81:101 *81:124 21.2144 
16 *81:124 *585:D 9.24915 
17 *81:124 *81:131 2.12196 
18 *81:131 *578:D 35.7215 
19 *81:131 *81:150 12.9878 
20 *81:150 *571:D 24.0432 
21 *81:150 *81:177 15.8483 
22 *81:177 *696:D 9.24915 
23 *81:177 *81:202 47.7591 
24 *81:202 *564:D 17.7714 
25 *81:95 *631:D 11.347 
26 *81:6 *81:226 19.3792 
27 *81:226 *599:D 15.3044 
28 *81:226 *81:249 24.3735 
29 *81:249 *652:D 9.24915 
30 *81:249 *81:262 17.0239 
31 *81:262 *645:D 38.6618 
32 *81:262 *638:D 31.423 
*END

*D_NET *82 0.0453863
*CONN
*I *584:D I *D sky130_fd_sc_hd__edfxtp_1
*I *637:D I *D sky130_fd_sc_hd__edfxtp_1
*I *605:D I *D sky130_fd_sc_hd__edfxtp_1
*I *658:D I *D sky130_fd_sc_hd__edfxtp_1
*I *695:D I *D sky130_fd_sc_hd__edfxtp_1
*I *702:D I *D sky130_fd_sc_hd__edfxtp_1
*I *630:D I *D sky130_fd_sc_hd__edfxtp_1
*I *591:D I *D sky130_fd_sc_hd__edfxtp_1
*I *665:D I *D sky130_fd_sc_hd__edfxtp_1
*I *577:D I *D sky130_fd_sc_hd__edfxtp_1
*I *688:D I *D sky130_fd_sc_hd__edfxtp_1
*I *563:D I *D sky130_fd_sc_hd__edfxtp_1
*I *598:D I *D sky130_fd_sc_hd__edfxtp_1
*I *644:D I *D sky130_fd_sc_hd__edfxtp_1
*I *570:D I *D sky130_fd_sc_hd__edfxtp_1
*I *651:D I *D sky130_fd_sc_hd__edfxtp_1
*I *388:X O *D sky130_fd_sc_hd__and2_0
*CAP
1 *584:D 0.000140158
2 *637:D 0
3 *605:D 0.00120868
4 *658:D 6.55199e-05
5 *695:D 0.00064416
6 *702:D 0
7 *630:D 0
8 *591:D 4.13874e-05
9 *665:D 0
10 *577:D 0.000121887
11 *688:D 0.000324735
12 *563:D 8.3439e-05
13 *598:D 0.000156576
14 *644:D 0
15 *570:D 0.000118011
16 *651:D 6.29158e-05
17 *388:X 0.000457593
18 *82:291 0.00239794
19 *82:268 0.00221156
20 *82:240 0.00117898
21 *82:212 0.00146632
22 *82:193 0.00107383
23 *82:176 0.000402425
24 *82:174 0.00108135
25 *82:155 0.00222135
26 *82:111 0.000725611
27 *82:98 0.000714291
28 *82:92 0.00208955
29 *82:66 0.00225154
30 *82:41 0.00384251
31 *82:10 0.00190498
32 *82:6 0.00107642
33 *563:D *563:DE 8.02056e-05
34 *563:D *167:28 1.80122e-05
35 *570:D *570:CLK 2.09695e-05
36 *577:D *577:DE 0.000134969
37 *577:D *155:10 0.000146486
38 *584:D *359:69 0.000189891
39 *584:D *359:79 0.000107496
40 *591:D *168:38 3.42384e-05
41 *591:D *330:12 9.12033e-06
42 *598:D *476:A1 0.000134294
43 *598:D *644:DE 3.25371e-05
44 *598:D *644:CLK 1.38877e-05
45 *605:D *605:DE 0.000115609
46 *605:D *609:D 9.97425e-05
47 *605:D *157:131 7.09666e-06
48 *605:D *157:150 0.000207883
49 *605:D *169:96 7.55514e-05
50 *605:D *169:107 8.29e-05
51 *605:D *231:38 0.000250254
52 *605:D *263:34 8.44149e-05
53 *605:D *333:26 0.000174348
54 *651:D *595:DE 5.04829e-06
55 *658:D *658:DE 0.000129806
56 *688:D *1193:A 6.50727e-05
57 *688:D *155:10 0.000186737
58 *688:D *355:117 1.24189e-05
59 *688:D *355:134 5.1493e-06
60 *695:D *397:A0 3.21238e-05
61 *695:D *481:A3 4.16137e-05
62 *695:D *655:CLK 5.49916e-05
63 *695:D *702:DE 5.32409e-05
64 *695:D *155:68 1.24984e-05
65 *695:D *279:62 0.000179256
66 *695:D *311:28 0.00015747
67 *695:D *358:77 0.000250752
68 *82:6 *646:DE 3.48849e-05
69 *82:6 *646:CLK 1.03403e-05
70 *82:10 *700:DE 0.000142378
71 *82:10 *156:14 0.000346049
72 *82:10 *361:14 3.67708e-05
73 *82:10 *361:18 0.000187498
74 *82:41 *530:B 0.000154145
75 *82:41 *556:A1 0
76 *82:41 *570:CLK 1.92336e-05
77 *82:41 *104:47 8.93904e-05
78 *82:41 *107:24 6.21488e-06
79 *82:41 *114:55 0.000282493
80 *82:41 *115:12 0
81 *82:41 *156:14 1.66771e-05
82 *82:41 *166:18 1.77472e-05
83 *82:41 *344:49 0
84 *82:41 *344:84 0.000597616
85 *82:41 *361:14 1.3023e-05
86 *82:66 *570:DE 6.89724e-06
87 *82:66 *570:CLK 0.00010503
88 *82:66 *594:DE 2.90638e-06
89 *82:66 *644:DE 0.000129042
90 *82:66 *218:32 0.000135127
91 *82:66 *239:16 2.87995e-06
92 *82:66 *253:58 1.85611e-05
93 *82:66 *364:92 1.18914e-05
94 *82:92 *565:DE 0.000290444
95 *82:92 *569:DE 0.000149392
96 *82:92 *646:DE 1.78704e-05
97 *82:92 *700:DE 0.000219101
98 *82:92 *104:39 0.000375717
99 *82:92 *116:29 2.80964e-05
100 *82:98 *565:DE 7.80988e-05
101 *82:98 *569:DE 0.000207282
102 *82:98 *116:29 3.14449e-05
103 *82:98 *152:20 0.000261618
104 *82:98 *158:107 0.00022234
105 *82:98 *167:28 1.03403e-05
106 *82:111 *139:16 0.000305939
107 *82:111 *167:28 0.000300951
108 *82:111 *355:134 0.000132739
109 *82:155 *613:CLK 3.98707e-05
110 *82:155 *665:CLK 7.45421e-05
111 *82:155 *147:18 3.48985e-05
112 *82:155 *241:16 7.51433e-06
113 *82:174 *630:CLK 7.84479e-05
114 *82:174 *665:DE 3.43037e-05
115 *82:174 *666:DE 6.10587e-05
116 *82:174 *161:108 0.000100999
117 *82:174 *170:107 7.09666e-06
118 *82:174 *298:30 2.99291e-05
119 *82:174 *336:134 5.8626e-05
120 *82:176 *630:CLK 0.000224947
121 *82:176 *155:44 8.28712e-05
122 *82:176 *336:113 5.13543e-05
123 *82:193 *630:CLK 0.000373205
124 *82:193 *332:32 6.52144e-05
125 *82:193 *336:113 3.48358e-05
126 *82:193 *337:8 8.19374e-05
127 *82:212 *702:DE 0.000114775
128 *82:212 *155:68 4.14773e-06
129 *82:212 *158:53 2.75678e-05
130 *82:212 *163:58 0
131 *82:212 *281:32 4.43225e-05
132 *82:212 *332:32 1.42335e-05
133 *82:268 *631:CLK 5.04829e-06
134 *82:268 *158:53 0.000225852
135 *82:268 *168:63 0.0002618
136 *82:268 *168:84 0.000205101
137 *82:268 *267:28 6.39573e-05
138 *82:268 *268:30 0.000273587
139 *82:268 *293:56 0.000148288
140 *82:268 *319:36 1.12271e-05
141 *82:268 *359:69 9.45422e-05
142 *82:268 *359:79 4.2372e-05
143 *82:291 *401:A1 0.000143054
144 *82:291 *434:A1 0.000435682
145 *82:291 *221:26 6.10124e-05
146 *82:291 *242:18 0.000164579
147 *82:291 *267:28 0.00120355
148 *82:291 *268:30 4.43935e-05
149 *82:291 *270:24 3.09143e-05
150 *82:291 *313:52 0.000164855
151 *82:291 *319:36 6.85251e-05
152 *82:291 *327:36 3.17436e-05
153 *82:291 *347:134 6.11749e-05
154 *396:B *651:D 2.74127e-05
155 *410:A2 *598:D 0.000190021
156 *410:A2 *82:41 0.000345729
157 *453:A0 *82:240 2.32537e-05
158 *453:A0 *82:268 4.33937e-05
159 *453:A3 *82:240 0.000158451
160 *453:A3 *82:268 0
161 *668:D *688:D 0.000228096
162 *690:D *695:D 0.000667667
163 *2:14 *82:111 2.01653e-05
164 *3:46 *688:D 0.000185506
165 *10:68 *82:41 0
166 *13:23 *82:41 7.20648e-06
167 *22:32 *82:92 0.000115282
168 *31:58 *605:D 1.21156e-05
169 *44:30 *82:41 3.29379e-05
170 *47:12 *82:10 1.72799e-05
171 *60:42 *82:291 5.60804e-05
172 *69:26 *82:174 0.000114559
173 *69:26 *82:176 1.07248e-05
174 *75:30 *82:291 4.45912e-05
175 *78:26 *82:41 0.000755242
176 *80:8 *82:111 0
177 *80:18 *82:6 6.37652e-06
178 *80:39 *82:6 2.84467e-05
179 *80:78 *688:D 1.91391e-05
180 *80:137 *695:D 0.000102966
181 *81:12 *82:10 0.000237745
182 *81:12 *82:92 1.72092e-05
183 *81:25 *82:155 2.61955e-05
184 *81:69 *82:174 0.00010936
185 *81:84 *82:174 1.82679e-05
186 *81:95 *82:268 5.78435e-05
187 *81:124 *695:D 5.10474e-05
*RES
1 *388:X *82:6 15.5186 
2 *82:6 *82:10 13.8065 
3 *82:10 *651:D 15.2321 
4 *82:10 *82:41 35.605 
5 *82:41 *570:D 12.6129 
6 *82:41 *82:66 31.6968 
7 *82:66 *644:D 9.24915 
8 *82:66 *598:D 23.0095 
9 *82:6 *82:92 19.2371 
10 *82:92 *82:98 15.5026 
11 *82:98 *563:D 11.3591 
12 *82:98 *82:111 18.3065 
13 *82:111 *688:D 36.364 
14 *82:111 *577:D 12.4562 
15 *82:92 *82:155 24.526 
16 *82:155 *665:D 9.24915 
17 *82:155 *82:174 24.1537 
18 *82:174 *82:176 4.32351 
19 *82:176 *591:D 14.8557 
20 *82:176 *82:193 12.3883 
21 *82:193 *630:D 9.24915 
22 *82:193 *82:212 23.7578 
23 *82:212 *702:D 9.24915 
24 *82:212 *695:D 38.3535 
25 *82:174 *82:240 6.88721 
26 *82:240 *82:268 46.0296 
27 *82:268 *658:D 15.2924 
28 *82:268 *82:291 19.1154 
29 *82:291 *605:D 42.0856 
30 *82:291 *637:D 9.24915 
31 *82:240 *584:D 13.0108 
*END

*D_NET *87 0.0151627
*CONN
*I *461:A1 I *D sky130_fd_sc_hd__mux4_2
*I *460:X O *D sky130_fd_sc_hd__mux4_2
*CAP
1 *461:A1 0.00106375
2 *460:X 0.00322687
3 *87:30 0.00429063
4 *461:A1 *661:DE 0.000170488
5 *461:A1 *661:CLK 2.57986e-05
6 *461:A1 *163:93 0.000110297
7 *87:30 *397:A0 5.32221e-05
8 *87:30 *401:B2 0.000553276
9 *87:30 *421:B2 3.61375e-05
10 *87:30 *460:S1 9.44875e-05
11 *87:30 *627:CLK 0.000181155
12 *87:30 *110:40 6.0279e-05
13 *87:30 *125:28 3.11366e-05
14 *87:30 *145:32 3.97063e-06
15 *87:30 *155:93 4.49107e-05
16 *87:30 *156:77 0.000306181
17 *87:30 *161:125 0.000440712
18 *87:30 *165:10 0.000245012
19 *87:30 *198:20 3.49028e-05
20 *87:30 *226:36 5.01449e-06
21 *87:30 *265:68 0.000393847
22 *87:30 *273:30 0.000164628
23 *87:30 *310:36 0
24 *87:30 *350:353 9.7807e-05
25 *87:30 *350:355 0.000149293
26 *87:30 *365:10 6.20469e-05
27 *31:46 *87:30 0.0018734
28 *54:22 *87:30 0.000853126
29 *72:30 *87:30 0.000590315
*RES
1 *460:X *87:30 45.5301 
2 *87:30 *461:A1 26.2972 
*END

*D_NET *88 0.0157101
*CONN
*I *462:B1 I *D sky130_fd_sc_hd__o21ai_0
*I *461:X O *D sky130_fd_sc_hd__mux4_2
*CAP
1 *462:B1 0.000386404
2 *461:X 0.00397052
3 *88:32 0.00435693
4 *462:B1 *89:8 0.000112231
5 *462:B1 *138:16 0
6 *88:32 *431:A0 7.38603e-05
7 *88:32 *437:A0 0.0011059
8 *88:32 *437:A1 1.92982e-05
9 *88:32 *545:A2 4.01938e-05
10 *88:32 *583:DE 3.82228e-05
11 *88:32 *661:DE 6.3657e-05
12 *88:32 *110:24 6.6104e-05
13 *88:32 *131:38 1.95926e-05
14 *88:32 *157:131 0.00062646
15 *88:32 *162:87 7.26785e-05
16 *88:32 *201:18 0.00095995
17 *88:32 *219:38 0.000457911
18 *88:32 *258:24 5.76996e-05
19 *88:32 *263:34 0.0001823
20 *88:32 *296:28 5.16283e-06
21 *88:32 *297:24 7.31369e-05
22 *88:32 *322:48 0.00202013
23 *88:32 *366:26 6.73728e-05
24 *416:A2 *462:B1 1.66626e-05
25 *416:A2 *88:32 0
26 *462:A1 *462:B1 4.77822e-05
27 *462:A2 *462:B1 3.20407e-05
28 *5:24 *88:32 1.76258e-06
29 *13:128 *88:32 0
30 *37:16 *462:B1 0
31 *60:42 *88:32 0.000259827
32 *63:8 *462:B1 0.000576328
*RES
1 *461:X *88:32 43.9868 
2 *88:32 *462:B1 26.5051 
*END

*D_NET *89 0.00955419
*CONN
*I *464:A2 I *D sky130_fd_sc_hd__a21oi_1
*I *462:Y O *D sky130_fd_sc_hd__o21ai_0
*CAP
1 *464:A2 0.00164233
2 *462:Y 0.000242615
3 *89:20 0.00248124
4 *89:12 0.00209855
5 *89:8 0.00150226
6 *464:A2 *142:8 0.000446428
7 *89:8 *220:64 2.16355e-05
8 *89:12 *547:A1 0.000265558
9 *89:12 *125:28 1.91246e-05
10 *89:12 *126:20 0
11 *89:12 *350:328 1.66771e-05
12 *89:12 *350:334 0.00041564
13 *89:20 *134:10 0
14 *408:A2 *89:12 1.35173e-05
15 *462:B1 *89:8 0.000112231
16 *5:24 *89:12 0.000160192
17 *36:18 *89:12 0
18 *36:18 *89:20 0
19 *42:12 *89:12 7.09666e-06
20 *59:18 *89:12 0.000109104
*RES
1 *462:Y *89:8 17.2456 
2 *89:8 *89:12 35.6384 
3 *89:12 *89:20 24.9709 
4 *89:20 *464:A2 49.048 
*END

*D_NET *91 0.0158566
*CONN
*I *469:A2 I *D sky130_fd_sc_hd__mux4_2
*I *465:X O *D sky130_fd_sc_hd__mux4_2
*CAP
1 *469:A2 0.00162319
2 *465:X 0.00180656
3 *91:16 0.00342974
4 *469:A2 *379:A 0.000160587
5 *469:A2 *469:S0 0.000378977
6 *469:A2 *481:A2 0.000597388
7 *469:A2 *566:DE 3.58503e-05
8 *469:A2 *93:30 0.000108462
9 *469:A2 *94:26 0.000930844
10 *469:A2 *103:30 4.03212e-05
11 *469:A2 *182:20 9.46015e-06
12 *469:A2 *247:28 0.000316236
13 *469:A2 *262:26 0.00120942
14 *469:A2 *319:36 2.73031e-05
15 *91:16 *455:A1 6.42879e-05
16 *91:16 *92:16 0
17 *91:16 *145:32 0.000268556
18 *91:16 *165:10 0.000565006
19 *91:16 *185:26 0.000215192
20 *91:16 *255:32 0.000461465
21 *91:16 *262:26 0.000156919
22 *91:16 *274:28 0.000197533
23 *91:16 *277:34 0
24 *91:16 *350:373 0.000138059
25 *6:16 *469:A2 2.26985e-05
26 *12:26 *91:16 3.9003e-05
27 *36:14 *91:16 0.00292026
28 *38:16 *469:A2 3.12734e-06
29 *71:14 *469:A2 0.000104052
30 *71:14 *91:16 2.61574e-05
*RES
1 *465:X *91:16 49.6401 
2 *91:16 *469:A2 26.6187 
*END

*D_NET *92 0.0173361
*CONN
*I *469:A0 I *D sky130_fd_sc_hd__mux4_2
*I *466:X O *D sky130_fd_sc_hd__mux4_2
*CAP
1 *469:A0 0.0030435
2 *466:X 0.000265422
3 *92:16 0.00499779
4 *92:12 0.00221971
5 *469:A0 *452:S0 0.00171128
6 *469:A0 *474:B2 0.00301752
7 *469:A0 *499:A1 9.42604e-05
8 *469:A0 *513:B 2.42661e-05
9 *469:A0 *533:B 8.84023e-05
10 *469:A0 *548:A2 0.000157517
11 *469:A0 *95:18 3.00073e-05
12 *469:A0 *102:26 4.20654e-06
13 *469:A0 *103:30 0
14 *469:A0 *119:48 0.000211559
15 *469:A0 *134:14 0.000448939
16 *469:A0 *149:22 0.000119303
17 *469:A0 *166:57 0
18 *469:A0 *169:8 6.50206e-05
19 *469:A0 *180:18 0
20 *469:A0 *182:20 7.49735e-06
21 *469:A0 *255:32 0
22 *469:A0 *277:34 7.36793e-05
23 *469:A0 *346:62 5.04734e-05
24 *92:12 *421:B2 0.000151101
25 *92:12 *466:S0 6.08467e-05
26 *92:12 *136:26 0
27 *92:12 *182:171 4.5475e-05
28 *92:16 *421:A1 0
29 *92:16 *486:A1 0
30 *92:16 *136:26 0
31 *92:16 *145:32 0
32 *92:16 *165:10 0
33 *92:16 *197:10 0
34 *4:12 *469:A0 6.16595e-06
35 *22:12 *469:A0 0.000102531
36 *39:10 *92:16 0
37 *40:26 *469:A0 0.000117938
38 *55:20 *92:16 0.000221709
39 *91:16 *92:16 0
*RES
1 *466:X *92:12 20.3594 
2 *92:12 *92:16 49.4251 
3 *92:16 *469:A0 36.2915 
*END

*D_NET *93 0.0257134
*CONN
*I *469:A3 I *D sky130_fd_sc_hd__mux4_2
*I *467:X O *D sky130_fd_sc_hd__mux4_2
*CAP
1 *469:A3 0.000135558
2 *467:X 0.00503028
3 *93:30 0.00516584
4 *469:A3 *533:B 0.000419522
5 *93:30 *379:B 0.00016416
6 *93:30 *410:A1 6.11401e-05
7 *93:30 *476:A0 1.14957e-05
8 *93:30 *536:A0 0.000262776
9 *93:30 *566:DE 7.70005e-06
10 *93:30 *94:26 4.991e-05
11 *93:30 *148:28 0.0022997
12 *93:30 *166:57 0
13 *93:30 *218:32 1.25085e-05
14 *93:30 *219:38 0.00143378
15 *93:30 *236:32 0.000845101
16 *93:30 *261:34 0.00165971
17 *93:30 *282:40 1.48365e-05
18 *93:30 *294:32 5.54293e-05
19 *93:30 *298:30 0.0010348
20 *93:30 *300:22 0.000163734
21 *93:30 *319:36 0.00227661
22 *93:30 *321:46 6.03237e-05
23 *93:30 *327:36 0.000334423
24 *93:30 *346:62 3.46501e-05
25 *469:A2 *93:30 0.000108462
26 *4:12 *93:30 6.19995e-05
27 *13:62 *93:30 4.30121e-05
28 *20:20 *93:30 5.94811e-05
29 *35:28 *93:30 0.00233262
30 *36:14 *93:30 0.000168906
31 *40:26 *93:30 5.51746e-06
32 *53:22 *93:30 3.94151e-05
33 *60:42 *93:30 0.00027785
34 *71:14 *93:30 0.0010822
*RES
1 *467:X *93:30 48.5683 
2 *93:30 *469:A3 13.8548 
*END

*D_NET *94 0.0232197
*CONN
*I *469:A1 I *D sky130_fd_sc_hd__mux4_2
*I *468:X O *D sky130_fd_sc_hd__mux4_2
*CAP
1 *469:A1 0
2 *468:X 0.00486046
3 *94:26 0.00486046
4 *94:26 *379:A 0.000178047
5 *94:26 *402:A1 0.00116936
6 *94:26 *468:A2 2.33103e-06
7 *94:26 *469:S0 0.000418061
8 *94:26 *476:A0 0.00232135
9 *94:26 *102:26 0.00106358
10 *94:26 *103:30 8.14128e-07
11 *94:26 *143:14 0.0010175
12 *94:26 *148:28 1.65393e-05
13 *94:26 *166:57 4.59359e-05
14 *94:26 *179:26 1.68853e-05
15 *94:26 *182:20 0.000136974
16 *94:26 *208:32 7.13655e-06
17 *94:26 *222:24 0.00277996
18 *94:26 *226:36 0.000159964
19 *94:26 *319:36 9.72857e-06
20 *94:26 *327:36 0.00272776
21 *469:A2 *94:26 0.000930844
22 *38:16 *94:26 0.00043594
23 *60:42 *94:26 1.0126e-05
24 *93:30 *94:26 4.991e-05
*RES
1 *468:X *94:26 45.7879 
2 *94:26 *469:A1 9.24915 
*END

*D_NET *95 0.00507946
*CONN
*I *470:B1 I *D sky130_fd_sc_hd__o21ai_0
*I *469:X O *D sky130_fd_sc_hd__mux4_2
*CAP
1 *470:B1 0.000720925
2 *469:X 0.00143949
3 *95:18 0.00216041
4 *470:B1 *145:22 0.000235519
5 *470:B1 *266:42 8.52986e-06
6 *95:18 *641:DE 3.5328e-05
7 *95:18 *647:CLK 4.00824e-05
8 *95:18 *119:48 2.69587e-05
9 *95:18 *166:59 3.58119e-05
10 *95:18 *182:20 0.000113345
11 *95:18 *277:34 9.06436e-05
12 *95:18 *357:14 4.81015e-05
13 *469:A0 *95:18 3.00073e-05
14 *470:A1 *470:B1 1.64518e-05
15 *470:A2 *470:B1 7.78546e-05
*RES
1 *469:X *95:18 42.2358 
2 *95:18 *470:B1 29.9203 
*END

*D_NET *96 0.0129645
*CONN
*I *494:A I *D sky130_fd_sc_hd__nor3b_1
*I *491:A2 I *D sky130_fd_sc_hd__o21ai_0
*I *492:A2 I *D sky130_fd_sc_hd__a21oi_1
*I *489:X O *D sky130_fd_sc_hd__and3_1
*CAP
1 *494:A 0.000691643
2 *491:A2 0
3 *492:A2 0.000230104
4 *489:X 0.000428381
5 *96:34 0.00173102
6 *96:22 0.00332293
7 *96:16 0.00155875
8 *492:A2 *468:A3 1.41976e-05
9 *492:A2 *492:B1 1.78942e-05
10 *492:A2 *505:A2 0
11 *492:A2 *648:DE 4.90331e-05
12 *492:A2 *305:32 4.23622e-05
13 *494:A *373:A 0.000298399
14 *494:A *494:B 0.000134242
15 *494:A *654:CLK 8.02893e-06
16 *494:A *180:111 4.15661e-05
17 *96:16 *543:A1 3.04065e-05
18 *96:16 *545:A2 5.08625e-05
19 *96:16 *592:CLK 3.07159e-05
20 *96:16 *139:16 2.81957e-05
21 *96:16 *173:20 0.000220191
22 *96:22 *516:B 0
23 *96:22 *553:B 0.000936891
24 *96:22 *595:DE 0.000101987
25 *96:22 *700:CLK 1.86464e-05
26 *96:22 *1172:A 0.000191277
27 *96:22 *105:10 0.000410199
28 *96:22 *114:68 0
29 *96:22 *139:16 5.23955e-05
30 *96:22 *309:32 2.9678e-05
31 *96:22 *317:22 7.85226e-05
32 *96:34 *105:10 0
33 *96:34 *113:54 0
34 *96:34 *114:68 0.000962495
35 *96:34 *179:26 0.00010609
36 *96:34 *305:32 9.14965e-05
37 *96:34 *313:52 3.5534e-06
38 *430:A2 *96:22 0
39 *592:D *96:16 1.04345e-05
40 *24:16 *96:22 7.10885e-05
41 *44:30 *96:34 0.000454154
42 *47:12 *96:22 0
43 *78:26 *96:22 0
44 *80:8 *96:16 1.95954e-05
45 *80:18 *96:16 7.65164e-06
46 *80:18 *96:22 0.000210442
47 *80:39 *96:22 0.000278948
*RES
1 *489:X *96:16 23.7502 
2 *96:16 *96:22 41.8028 
3 *96:22 *96:34 31.2991 
4 *96:34 *492:A2 19.2357 
5 *96:34 *491:A2 13.7491 
6 *96:22 *494:A 31.8136 
*END

*D_NET *97 0.0203902
*CONN
*I *556:A2 I *D sky130_fd_sc_hd__o21ai_0
*I *557:A2 I *D sky130_fd_sc_hd__a21oi_1
*I *490:Y O *D sky130_fd_sc_hd__nand4_1
*CAP
1 *556:A2 0.00286396
2 *557:A2 0.00266347
3 *490:Y 0.0009572
4 *97:16 0.00648463
5 *556:A2 *530:B 1.80524e-05
6 *556:A2 *556:A1 2.78277e-05
7 *556:A2 *116:50 1.91391e-05
8 *556:A2 *140:36 0.00281527
9 *556:A2 *343:90 1.5714e-05
10 *556:A2 *344:84 0.000114668
11 *557:A2 *502:B1 0
12 *557:A2 *507:B1 0
13 *557:A2 *527:A 0.000238392
14 *557:A2 *557:A1 0.000169326
15 *557:A2 *566:DE 0.00078685
16 *557:A2 *106:8 0.000111676
17 *557:A2 *140:36 0.00206294
18 *557:A2 *175:16 4.20184e-06
19 *97:16 *377:A 5.44643e-05
20 *97:16 *538:A2 0.000325557
21 *97:16 *543:S 4.61963e-05
22 *97:16 *563:CLK 1.43983e-05
23 *97:16 *104:14 0
24 *97:16 *152:20 2.0535e-05
25 *97:16 *344:22 0
26 *383:A2 *97:16 4.04447e-05
27 *6:10 *557:A2 4.69495e-06
28 *81:69 *97:16 0.000530549
*RES
1 *490:Y *97:16 22.1214 
2 *97:16 *557:A2 26.2896 
3 *97:16 *556:A2 24.7179 
*END

*D_NET *98 0.000106655
*CONN
*I *492:B1 I *D sky130_fd_sc_hd__a21oi_1
*I *491:Y O *D sky130_fd_sc_hd__o21ai_0
*CAP
1 *492:B1 1.25521e-05
2 *491:Y 1.25521e-05
3 *492:B1 *648:DE 6.3657e-05
4 *492:A2 *492:B1 1.78942e-05
*RES
1 *491:Y *492:B1 19.2217 
*END

*D_NET *99 0.00578699
*CONN
*I *472:B1 I *D sky130_fd_sc_hd__a21oi_1
*I *471:Y O *D sky130_fd_sc_hd__o21ai_0
*CAP
1 *472:B1 0.00103341
2 *471:Y 0.000808836
3 *99:12 0.00184225
4 *472:B1 *449:A0 7.09666e-06
5 *472:B1 *144:34 0.000459781
6 *472:B1 *182:14 1.273e-05
7 *99:12 dout[1] 0
8 *99:12 *486:A1 7.52574e-06
9 *99:12 *145:32 0.00124481
10 *99:12 *262:26 0
11 *445:A2 *472:B1 4.84017e-05
12 *454:A1 *472:B1 0.000199603
13 *454:A2 *472:B1 1.19856e-05
14 *454:B1 *472:B1 6.78549e-05
15 *58:28 *99:12 4.27087e-05
*RES
1 *471:Y *99:12 41.9824 
2 *99:12 *472:B1 42.7369 
*END

*D_NET *100 0.020507
*CONN
*I *494:B I *D sky130_fd_sc_hd__nor3b_1
*I *493:Y O *D sky130_fd_sc_hd__a21oi_1
*CAP
1 *494:B 0.00126283
2 *493:Y 0
3 *100:10 0.00439914
4 *100:8 0.00313631
5 *100:6 0.00137767
6 *100:4 0.00137767
7 *494:B *373:A 0.000254532
8 *494:B *516:B 0.000247381
9 *494:B *115:33 0.000325375
10 *494:B *147:12 3.82228e-05
11 *494:B *168:10 1.58551e-05
12 *494:B *350:57 0
13 *100:6 *180:28 0.000116943
14 *100:6 *342:15 0.000110274
15 *100:10 *388:A 0.00118605
16 *100:10 *391:A 0.000201393
17 *100:10 *193:17 0.000169588
18 *410:A2 *494:B 0.000158495
19 *430:A2 *494:B 0.000413004
20 *494:A *494:B 0.000134242
21 *496:B *100:6 0.00172581
22 *22:12 *100:6 0.00385618
23 *80:39 *494:B 0
*RES
1 *493:Y *100:4 9.24915 
2 *100:4 *100:6 60.066 
3 *100:6 *100:8 4.5 
4 *100:8 *100:10 97.9629 
5 *100:10 *494:B 32.9261 
*END

*D_NET *101 0.00448672
*CONN
*I *497:A I *D sky130_fd_sc_hd__nor2_1
*I *495:Y O *D sky130_fd_sc_hd__a21oi_1
*CAP
1 *497:A 0.000111124
2 *495:Y 0.00141189
3 *101:14 0.00152302
4 *497:A *440:A1 0
5 *497:A *537:B2 9.96332e-05
6 *497:A *102:26 1.2693e-05
7 *101:14 *495:A1 2.99287e-05
8 *101:14 *645:DE 0
9 *101:14 *645:CLK 2.41274e-06
10 *101:14 *112:22 5.04223e-05
11 *101:14 *170:41 0
12 *101:14 *222:38 0.000158371
13 *101:14 *350:117 3.9132e-05
14 *101:14 *350:134 6.08467e-05
15 *425:A2 *101:14 0.00013435
16 *645:D *101:14 3.51067e-05
17 *41:16 *101:14 0.00028092
18 *58:28 *497:A 4.0919e-05
19 *76:16 *101:14 0.000495948
*RES
1 *495:Y *101:14 47.0229 
2 *101:14 *497:A 20.9116 
*END

*D_NET *102 0.0187264
*CONN
*I *497:B I *D sky130_fd_sc_hd__nor2_1
*I *496:Y O *D sky130_fd_sc_hd__nand2_1
*CAP
1 *497:B 0
2 *496:Y 0.0071812
3 *102:26 0.0071812
4 *102:26 *537:B2 0.000129098
5 *102:26 *222:24 0.00277047
6 *102:26 *222:38 1.5714e-05
7 *102:26 *226:36 0.000166453
8 *102:26 *248:34 4.69495e-06
9 *102:26 *313:52 2.21499e-05
10 *102:26 *319:36 0
11 *395:B *102:26 0
12 *469:A0 *102:26 4.20654e-06
13 *497:A *102:26 1.2693e-05
14 *40:26 *102:26 0
15 *44:30 *102:26 0.000174946
16 *94:26 *102:26 0.00106358
*RES
1 *496:Y *102:26 46.773 
2 *102:26 *497:B 9.24915 
*END

*D_NET *103 0.0173962
*CONN
*I *499:B1 I *D sky130_fd_sc_hd__a21oi_1
*I *498:Y O *D sky130_fd_sc_hd__o21ai_0
*CAP
1 *499:B1 0.000116248
2 *498:Y 0.00363282
3 *103:30 0.00374906
4 *499:B1 *499:A1 1.41976e-05
5 *103:30 *499:A1 0
6 *103:30 *507:B1 4.15313e-05
7 *103:30 *557:A1 7.53083e-05
8 *103:30 *654:DE 6.22316e-05
9 *103:30 *108:26 0.00479459
10 *103:30 *111:24 0.000201168
11 *103:30 *116:8 4.35713e-05
12 *103:30 *155:198 0.000139738
13 *103:30 *166:57 1.6656e-05
14 *103:30 *181:55 0.000564858
15 *103:30 *282:40 0.00112683
16 *103:30 *346:109 0.000169003
17 *103:30 *351:46 2.21081e-05
18 *384:B *103:30 1.39717e-06
19 *410:A2 *103:30 1.43499e-05
20 *469:A0 *103:30 0
21 *469:A2 *103:30 4.03212e-05
22 *6:69 *103:30 0.00245569
23 *6:87 *103:30 0.000113729
24 *94:26 *103:30 8.14128e-07
*RES
1 *498:Y *103:30 49.5748 
2 *103:30 *499:B1 11.6364 
*END

*D_NET *104 0.0208411
*CONN
*I *506:A2 I *D sky130_fd_sc_hd__a21oi_1
*I *502:A2 I *D sky130_fd_sc_hd__o21ai_0
*I *505:A2 I *D sky130_fd_sc_hd__o21ai_0
*I *501:C I *D sky130_fd_sc_hd__nor3_1
*I *508:B I *D sky130_fd_sc_hd__and3_1
*I *500:Y O *D sky130_fd_sc_hd__o2111ai_1
*CAP
1 *506:A2 6.29288e-05
2 *502:A2 0.000167162
3 *505:A2 0.000692692
4 *501:C 0.000195879
5 *508:B 0
6 *500:Y 4.24874e-05
7 *104:83 0.000768883
8 *104:81 0.00160567
9 *104:47 0.00180036
10 *104:39 0.0024098
11 *104:14 0.00198275
12 *104:8 0.00159411
13 *501:C *501:B 6.73093e-05
14 *501:C *505:A1 3.65872e-05
15 *501:C *113:8 2.41274e-06
16 *501:C *140:36 6.08467e-05
17 *501:C *157:20 0.000197265
18 *501:C *166:18 9.4385e-05
19 *502:A2 *531:A 9.43828e-06
20 *502:A2 *531:B 2.87296e-05
21 *502:A2 *118:57 0
22 *502:A2 *119:48 4.37831e-05
23 *502:A2 *180:41 0.000118054
24 *502:A2 *180:60 3.37216e-05
25 *505:A2 *505:A1 7.23887e-05
26 *505:A2 *518:A 6.01329e-05
27 *505:A2 *522:A 0.000161738
28 *505:A2 *648:DE 0.000122098
29 *505:A2 *108:26 7.50872e-05
30 *505:A2 *112:22 0.00041102
31 *505:A2 *116:64 0.000208685
32 *505:A2 *153:22 0
33 *505:A2 *157:20 0.000137388
34 *505:A2 *305:32 8.13812e-06
35 *506:A2 *506:B1 0.000147356
36 *506:A2 *114:14 1.65872e-05
37 *506:A2 *114:26 1.92172e-05
38 *506:A2 *164:20 0.000242085
39 *104:8 *500:C1 6.50586e-05
40 *104:14 *538:A1 0.000112227
41 *104:14 *538:A2 0
42 *104:14 *563:CLK 0
43 *104:14 *592:CLK 0.000130777
44 *104:14 *109:24 0.000861486
45 *104:14 *123:32 0
46 *104:14 *152:20 0
47 *104:14 *361:42 0.000310716
48 *104:39 *565:DE 7.7477e-05
49 *104:39 *565:CLK 3.82228e-05
50 *104:39 *700:DE 4.91705e-05
51 *104:39 *114:68 1.72868e-05
52 *104:39 *115:12 0.000111302
53 *104:39 *115:35 0
54 *104:39 *116:29 0.0015245
55 *104:39 *152:20 1.4091e-06
56 *104:39 *156:14 0.000586876
57 *104:39 *156:46 9.34796e-05
58 *104:39 *361:42 1.92172e-05
59 *104:47 *530:B 1.07881e-05
60 *104:47 *113:54 3.74181e-06
61 *104:47 *115:12 0.000398575
62 *104:47 *140:36 9.00714e-07
63 *104:47 *153:22 6.6144e-05
64 *104:47 *157:16 5.25142e-05
65 *104:47 *344:84 2.02077e-05
66 *104:81 *514:A 1.28704e-05
67 *104:81 *688:CLK 0
68 *104:81 *109:14 0
69 *104:81 *109:24 0.000350539
70 *104:81 *342:25 0.0002928
71 *104:81 *355:140 7.29374e-05
72 *104:83 *529:A 6.50727e-05
73 *104:83 *529:B 6.08467e-05
74 *104:83 *114:26 0.000454343
75 *104:83 *164:20 2.41483e-05
76 *104:83 *167:6 0.000492179
77 *104:83 *167:14 0.000265296
78 *383:A2 *104:14 0
79 *410:A2 *104:47 0
80 *492:A2 *505:A2 0
81 *565:D *104:39 9.12033e-06
82 *3:46 *104:81 0
83 *4:57 *104:81 0
84 *10:68 *505:A2 1.59634e-05
85 *80:58 *505:A2 1.05982e-05
86 *82:41 *104:47 8.93904e-05
87 *82:92 *104:39 0.000375717
88 *97:16 *104:14 0
*RES
1 *500:Y *104:8 14.4725 
2 *104:8 *104:14 23.1137 
3 *104:14 *508:B 9.24915 
4 *104:14 *104:39 47.1779 
5 *104:39 *104:47 15.8317 
6 *104:47 *501:C 20.3916 
7 *104:47 *505:A2 39.2583 
8 *104:8 *104:81 36.1324 
9 *104:81 *104:83 19.0253 
10 *104:83 *502:A2 22.8094 
11 *104:83 *506:A2 12.7697 
*END

*D_NET *105 0.00652406
*CONN
*I *504:A I *D sky130_fd_sc_hd__nor2_1
*I *553:B I *D sky130_fd_sc_hd__xor2_1
*I *501:Y O *D sky130_fd_sc_hd__nor3_1
*CAP
1 *504:A 5.71393e-05
2 *553:B 0.000344247
3 *501:Y 0.0012155
4 *105:10 0.00161688
5 *504:A *150:14 6.51738e-05
6 *105:10 *113:8 9.80242e-07
7 *105:10 *140:36 6.08467e-05
8 *105:10 *343:52 0.00033977
9 *105:10 *343:67 0.000154145
10 *105:10 *344:49 0
11 *24:16 *553:B 0.000931794
12 *24:16 *105:10 0.000390493
13 *96:22 *553:B 0.000936891
14 *96:22 *105:10 0.000410199
15 *96:34 *105:10 0
*RES
1 *501:Y *105:10 39.3052 
2 *105:10 *553:B 30.9455 
3 *105:10 *504:A 15.3647 
*END

*D_NET *106 0.00533403
*CONN
*I *503:B I *D sky130_fd_sc_hd__nand2_1
*I *502:Y O *D sky130_fd_sc_hd__o21ai_0
*CAP
1 *503:B 0.00074781
2 *502:Y 0.000401172
3 *106:8 0.00114898
4 *503:B *379:A 2.02035e-05
5 *503:B *379:B 8.43167e-05
6 *503:B *513:B 0
7 *503:B *647:DE 0.000124447
8 *503:B *647:CLK 6.78059e-05
9 *503:B *691:CLK 8.23875e-05
10 *503:B *107:24 6.46815e-05
11 *503:B *180:18 6.67641e-06
12 *503:B *282:40 9.82202e-06
13 *503:B *346:62 0.00050584
14 *503:B *354:10 6.88655e-05
15 *503:B *354:40 3.76855e-05
16 *106:8 *502:B1 1.43848e-05
17 *106:8 *527:B 0.000345537
18 *106:8 *557:A1 2.57986e-05
19 *106:8 *1192:A 1.41976e-05
20 *106:8 *140:36 7.97098e-06
21 *106:8 *163:14 0.000200794
22 *106:8 *175:16 6.50586e-05
23 *106:8 *343:167 0.00111514
24 *384:B *503:B 6.27782e-05
25 *557:A2 *106:8 0.000111676
*RES
1 *502:Y *106:8 31.1106 
2 *106:8 *503:B 34.6489 
*END

*D_NET *107 0.017026
*CONN
*I *504:B I *D sky130_fd_sc_hd__nor2_1
*I *503:Y O *D sky130_fd_sc_hd__nand2_1
*CAP
1 *504:B 0.000254177
2 *503:Y 0.00613179
3 *107:24 0.00638597
4 *504:B *286:18 0
5 *504:B *344:49 0
6 *504:B *350:57 0
7 *107:24 *622:CLK 0.000129564
8 *107:24 *651:DE 4.99011e-06
9 *107:24 *111:24 0
10 *107:24 *114:55 0.00256988
11 *107:24 *120:39 0.000519148
12 *107:24 *180:18 0
13 *107:24 *286:18 4.56931e-05
14 *384:B *107:24 0.000196907
15 *503:B *107:24 6.46815e-05
16 *8:6 *107:24 0.000176299
17 *13:23 *107:24 0
18 *22:32 *107:24 9.77794e-05
19 *24:16 *504:B 0.000384802
20 *78:26 *107:24 5.80433e-05
21 *82:41 *107:24 6.21488e-06
*RES
1 *503:Y *107:24 44.1069 
2 *107:24 *504:B 21.5046 
*END

*D_NET *108 0.0175402
*CONN
*I *506:B1 I *D sky130_fd_sc_hd__a21oi_1
*I *505:Y O *D sky130_fd_sc_hd__o21ai_0
*CAP
1 *506:B1 0.00025073
2 *505:Y 0.00291794
3 *108:26 0.00316867
4 *506:B1 *506:A1 3.03484e-05
5 *506:B1 *531:A 6.01453e-06
6 *506:B1 *114:14 6.08467e-05
7 *506:B1 *164:20 2.77625e-06
8 *108:26 *382:B1 3.58315e-06
9 *108:26 *527:A 2.47378e-05
10 *108:26 *527:B 6.61215e-06
11 *108:26 *570:CLK 0.000267471
12 *108:26 *648:DE 0.000130811
13 *108:26 *111:24 0.000168503
14 *108:26 *146:26 0.00211406
15 *108:26 *157:58 4.62112e-05
16 *108:26 *161:16 0.000208977
17 *108:26 *175:16 0
18 *108:26 *179:26 0
19 *108:26 *282:40 0.00261349
20 *108:26 *344:84 0
21 *108:26 *346:109 0.000133599
22 *108:26 *362:18 1.5714e-05
23 *382:A1 *108:26 2.02035e-05
24 *505:A2 *108:26 7.50872e-05
25 *506:A2 *506:B1 0.000147356
26 *6:8 *506:B1 0.000215846
27 *6:10 *108:26 2.69685e-05
28 *6:69 *108:26 8.90345e-05
29 *103:30 *108:26 0.00479459
*RES
1 *505:Y *108:26 47.2653 
2 *108:26 *506:B1 15.3498 
*END

*D_NET *109 0.00982141
*CONN
*I *535:B I *D sky130_fd_sc_hd__nor3_1
*I *508:C I *D sky130_fd_sc_hd__and3_1
*I *507:X O *D sky130_fd_sc_hd__a21o_1
*CAP
1 *535:B 0
2 *508:C 0
3 *507:X 0.00134922
4 *109:24 0.000987802
5 *109:14 0.00160434
6 *109:8 0.00196575
7 *109:14 *535:C 6.08467e-05
8 *109:14 *116:10 0.000402276
9 *109:14 *116:27 6.88938e-05
10 *109:14 *342:25 0
11 *109:24 *535:C 6.08467e-05
12 *109:24 *538:A1 0.00054962
13 *109:24 *342:25 0.000761596
14 *109:24 *343:18 0
15 *109:24 *343:29 0
16 *109:24 *361:42 3.09847e-05
17 *668:D *109:14 0.000205317
18 *3:46 *109:14 0.00056189
19 *104:14 *109:24 0.000861486
20 *104:81 *109:14 0
21 *104:81 *109:24 0.000350539
*RES
1 *507:X *109:8 32.2199 
2 *109:8 *109:14 27.4027 
3 *109:14 *109:24 45.3279 
4 *109:24 *508:C 9.24915 
5 *109:14 *535:B 9.24915 
*END

*D_NET *110 0.00962298
*CONN
*I *475:A2 I *D sky130_fd_sc_hd__o21ai_0
*I *473:Y O *D sky130_fd_sc_hd__mux2i_1
*CAP
1 *475:A2 0.000309687
2 *473:Y 0.000682504
3 *110:40 0.00179827
4 *110:24 0.00217109
5 *475:A2 *475:B1 4.87439e-05
6 *110:24 *437:A0 6.23077e-05
7 *110:24 *473:A0 0.000110306
8 *110:24 *605:CLK 9.66809e-05
9 *110:24 *216:36 0.000408963
10 *110:24 *251:60 0.00017809
11 *110:24 *269:20 3.55731e-06
12 *110:24 *366:26 0.000229483
13 *110:40 dout[1] 0.000273518
14 *110:40 *431:A1 0.000153208
15 *110:40 *455:A1 0
16 *110:40 *460:S0 0.000361827
17 *110:40 *465:A3 4.51176e-05
18 *110:40 *536:A0 2.25583e-07
19 *110:40 *549:A2 1.01823e-05
20 *110:40 *145:32 0
21 *110:40 *198:20 0.000169665
22 *110:40 *202:10 1.91391e-05
23 *110:40 *216:12 0.000440899
24 *110:40 *216:36 2.32254e-05
25 *110:40 *220:64 3.77568e-05
26 *110:40 *232:20 2.37056e-05
27 *110:40 *251:36 0
28 *110:40 *254:22 2.27467e-05
29 *110:40 *262:26 0.000463909
30 *110:40 *265:68 4.82449e-05
31 *110:40 *269:20 0.000532018
32 *110:40 *304:30 1.91391e-05
33 *110:40 *312:20 4.96741e-05
34 *110:40 *350:373 1.91246e-05
35 *564:D *110:40 0.000118796
36 *4:26 *475:A2 0.000230644
37 *51:18 *110:24 0.000222346
38 *67:20 *475:A2 0.000111802
39 *87:30 *110:40 6.0279e-05
40 *88:32 *110:24 6.6104e-05
*RES
1 *473:Y *110:24 36.5451 
2 *110:24 *110:40 47.8431 
3 *110:40 *475:A2 22.7916 
*END

*D_NET *111 0.0193937
*CONN
*I *510:B1 I *D sky130_fd_sc_hd__a21oi_1
*I *509:Y O *D sky130_fd_sc_hd__o21ai_0
*CAP
1 *510:B1 0
2 *509:Y 0.00659842
3 *111:24 0.00659842
4 *111:24 *458:A0 0.000144702
5 *111:24 *458:A1 0.000155294
6 *111:24 *495:A1 9.83486e-05
7 *111:24 *510:A1 1.07248e-05
8 *111:24 *600:CLK 7.00544e-05
9 *111:24 *116:64 1.06805e-05
10 *111:24 *146:26 0.00213705
11 *111:24 *153:22 0
12 *111:24 *155:198 0
13 *111:24 *170:14 6.71978e-06
14 *111:24 *179:26 0.00020051
15 *111:24 *245:20 8.46605e-05
16 *111:24 *282:40 0.00284669
17 *111:24 *346:109 0
18 *111:24 *364:8 3.91465e-05
19 *111:24 *364:28 1.84545e-05
20 *384:B *111:24 4.19401e-06
21 *103:30 *111:24 0.000201168
22 *107:24 *111:24 0
23 *108:26 *111:24 0.000168503
*RES
1 *509:Y *111:24 49.6334 
2 *111:24 *510:B1 13.7491 
*END

*D_NET *112 0.00395115
*CONN
*I *515:B I *D sky130_fd_sc_hd__nand2_1
*I *511:Y O *D sky130_fd_sc_hd__nand2_1
*CAP
1 *515:B 0
2 *511:Y 0.00121265
3 *112:22 0.00121265
4 *112:22 *371:A 6.12686e-06
5 *112:22 *468:S0 6.08467e-05
6 *112:22 *495:A1 2.69795e-05
7 *112:22 *510:A1 1.4994e-05
8 *112:22 *511:A 8.78519e-05
9 *112:22 *520:B 0
10 *112:22 *600:DE 0
11 *112:22 *600:CLK 4.69806e-05
12 *112:22 *114:84 3.70069e-05
13 *112:22 *170:14 0.000100716
14 *112:22 *170:41 0
15 *112:22 *181:10 8.77451e-05
16 *112:22 *351:210 0.000304446
17 *505:A2 *112:22 0.00041102
18 *10:68 *112:22 3.33338e-05
19 *76:16 *112:22 0.000257384
20 *101:14 *112:22 5.04223e-05
*RES
1 *511:Y *112:22 49.6356 
2 *112:22 *515:B 9.24915 
*END

*D_NET *113 0.0197839
*CONN
*I *522:A I *D sky130_fd_sc_hd__nor2_1
*I *518:A I *D sky130_fd_sc_hd__nor2_1
*I *514:A I *D sky130_fd_sc_hd__nor2_1
*I *529:A I *D sky130_fd_sc_hd__nor2_1
*I *512:Y O *D sky130_fd_sc_hd__nand3_1
*CAP
1 *522:A 0.000322375
2 *518:A 7.14474e-05
3 *514:A 0.000717931
4 *529:A 0.000810975
5 *512:Y 0.000200441
6 *113:54 0.000850061
7 *113:10 0.0030768
8 *113:8 0.00220458
9 *514:A *114:55 0.000105929
10 *514:A *153:22 8.93503e-05
11 *514:A *155:10 6.50586e-05
12 *514:A *343:18 0.00054015
13 *518:A *157:16 5.04829e-06
14 *522:A *505:A1 0.000462152
15 *522:A *116:64 4.87343e-05
16 *529:A *531:B 2.1203e-06
17 *529:A *626:D 0.000120195
18 *529:A *114:26 6.92705e-05
19 *529:A *117:37 5.04829e-06
20 *529:A *119:24 0.000291141
21 *529:A *119:32 0.000189676
22 *529:A *120:73 0.000122094
23 *529:A *180:60 0.000383217
24 *529:A *180:87 0.000101717
25 *529:A *257:38 0.000230882
26 *529:A *306:28 6.14165e-05
27 *113:8 *556:A1 1.65872e-05
28 *113:8 *140:36 3.99086e-06
29 *113:8 *343:67 0.000111802
30 *113:10 *574:CLK 0.000214109
31 *113:10 *612:D 7.71503e-05
32 *113:10 *117:39 7.73793e-06
33 *113:10 *117:43 0.0008154
34 *113:10 *120:73 0.000280927
35 *113:10 *166:28 0.00044663
36 *113:10 *166:38 0.00104574
37 *113:10 *180:87 0.000253376
38 *113:10 *180:111 0.00084461
39 *113:10 *181:55 0.00127553
40 *113:10 *282:40 2.27135e-05
41 *113:54 *501:A 3.31194e-06
42 *113:54 *505:A1 3.4335e-05
43 *113:54 *530:B 0.000121899
44 *113:54 *654:CLK 0
45 *113:54 *117:43 0.000213601
46 *113:54 *117:58 0.000267669
47 *113:54 *140:36 6.24695e-05
48 *113:54 *157:16 0.000202166
49 *113:54 *179:26 6.21488e-06
50 *393:A2 *529:A 0.000191401
51 *501:C *113:8 2.41274e-06
52 *505:A2 *518:A 6.01329e-05
53 *505:A2 *522:A 0.000161738
54 *689:D *529:A 2.95884e-05
55 *4:57 *514:A 1.17185e-05
56 *80:58 *518:A 6.16319e-05
57 *80:58 *522:A 0.000278694
58 *80:93 *514:A 0.00142814
59 *96:34 *113:54 0
60 *104:47 *113:54 3.74181e-06
61 *104:81 *514:A 1.28704e-05
62 *104:83 *529:A 6.50727e-05
63 *105:10 *113:8 9.80242e-07
*RES
1 *512:Y *113:8 16.691 
2 *113:8 *113:10 59.3444 
3 *113:10 *529:A 48.6936 
4 *113:10 *514:A 24.4251 
5 *113:8 *113:54 16.3453 
6 *113:54 *518:A 15.6817 
7 *113:54 *522:A 24.8497 
*END

*D_NET *114 0.030521
*CONN
*I *531:A I *D sky130_fd_sc_hd__nor2_1
*I *520:A I *D sky130_fd_sc_hd__nor2_1
*I *516:A I *D sky130_fd_sc_hd__nor2_1
*I *514:B I *D sky130_fd_sc_hd__nor2_1
*I *513:Y O *D sky130_fd_sc_hd__nand3_1
*CAP
1 *531:A 2.35441e-05
2 *520:A 0
3 *516:A 3.73114e-05
4 *514:B 9.97693e-05
5 *513:Y 0.00151108
6 *114:84 0.00119498
7 *114:68 0.00203362
8 *114:55 0.00331672
9 *114:28 0.003042
10 *114:26 0.00179001
11 *114:14 0.00134889
12 *114:10 0.00154788
13 *514:B *190:13 7.89747e-05
14 *516:A *156:8 1.03403e-05
15 *114:10 *507:B1 0
16 *114:10 *509:A1 0
17 *114:10 *557:A1 1.05601e-05
18 *114:10 *140:36 3.04331e-05
19 *114:10 *175:16 2.47286e-05
20 *114:10 *180:28 0.00153986
21 *114:10 *180:41 0.00014777
22 *114:10 *180:60 2.69685e-05
23 *114:10 *343:167 0
24 *114:14 *506:A1 6.08467e-05
25 *114:26 *394:D1 0
26 *114:26 *529:B 6.08467e-05
27 *114:26 *533:B 2.77564e-05
28 *114:26 *119:32 0.000176016
29 *114:26 *120:39 2.72352e-05
30 *114:26 *167:6 0.000264612
31 *114:26 *167:14 0.000262509
32 *114:26 *335:19 5.17016e-06
33 *114:28 *342:25 0.00138702
34 *114:28 *343:18 6.52447e-05
35 *114:55 *516:B 5.0557e-06
36 *114:55 *156:14 5.74949e-05
37 *114:55 *156:46 9.69243e-05
38 *114:55 *309:32 0.000199632
39 *114:55 *342:25 6.75696e-05
40 *114:55 *343:18 9.2275e-05
41 *114:55 *344:22 0.000481928
42 *114:68 *115:12 0.000802668
43 *114:68 *156:46 2.01653e-05
44 *114:84 *371:A 4.10549e-05
45 *114:84 *511:A 6.27718e-05
46 *114:84 *520:B 0.000142393
47 *114:84 *181:10 0.00147065
48 *114:84 *343:90 0.00060558
49 *430:A2 *114:55 0.000138703
50 *430:A2 *114:68 0.000134017
51 *502:A2 *531:A 9.43828e-06
52 *506:A2 *114:14 1.65872e-05
53 *506:A2 *114:26 1.92172e-05
54 *506:B1 *531:A 6.01453e-06
55 *506:B1 *114:14 6.08467e-05
56 *514:A *114:55 0.000105929
57 *529:A *114:26 6.92705e-05
58 *22:32 *114:55 0.000445548
59 *78:26 *114:10 0
60 *78:26 *114:55 0.000155983
61 *80:39 *114:55 6.40413e-05
62 *80:93 *114:55 0.00066562
63 *81:249 *114:55 7.40684e-06
64 *82:41 *114:55 0.000282493
65 *96:22 *114:68 0
66 *96:34 *114:68 0.000962495
67 *104:39 *114:68 1.72868e-05
68 *104:83 *114:26 0.000454343
69 *107:24 *114:55 0.00256988
70 *112:22 *114:84 3.70069e-05
*RES
1 *513:Y *114:10 47.7468 
2 *114:10 *114:14 5.778 
3 *114:14 *114:26 37.2991 
4 *114:26 *114:28 22.5946 
5 *114:28 *514:B 16.1364 
6 *114:28 *114:55 20.2285 
7 *114:55 *516:A 14.4725 
8 *114:55 *114:68 34.9844 
9 *114:68 *114:84 48.163 
10 *114:84 *520:A 9.24915 
11 *114:14 *531:A 9.82786 
*END

*D_NET *115 0.0218347
*CONN
*I *526:A I *D sky130_fd_sc_hd__nor2_1
*I *527:A I *D sky130_fd_sc_hd__nor2_1
*I *516:B I *D sky130_fd_sc_hd__nor2_1
*I *515:Y O *D sky130_fd_sc_hd__nand2_1
*CAP
1 *526:A 0
2 *527:A 0.00180285
3 *516:B 0.000237164
4 *515:Y 0.00130906
5 *115:43 0.00233578
6 *115:35 0.00231417
7 *115:33 0.0018182
8 *115:12 0.00158318
9 *516:B *156:8 1.21461e-06
10 *516:B *156:46 3.52699e-05
11 *527:A *382:B1 0.000293883
12 *527:A *502:B1 0
13 *527:A *527:B 0.000766826
14 *527:A *557:A1 0.00015862
15 *527:A *566:DE 0.000145335
16 *527:A *691:DE 8.78565e-06
17 *527:A *1192:A 4.31603e-06
18 *527:A *116:10 0
19 *527:A *161:16 1.17431e-05
20 *527:A *342:15 0.000152135
21 *527:A *342:55 8.20493e-05
22 *527:A *343:167 3.31745e-05
23 *527:A *355:14 1.82696e-05
24 *115:33 *156:46 0.000289597
25 *115:35 *544:A1 0.000830933
26 *115:35 *553:A 0
27 *115:35 *576:CLK 0.000169724
28 *115:35 *595:DE 0
29 *115:35 *599:DE 0
30 *115:35 *622:CLK 1.20291e-05
31 *115:35 *651:DE 4.15201e-05
32 *115:35 *116:29 5.40012e-05
33 *115:35 *119:24 0
34 *115:35 *157:30 0.0018977
35 *115:35 *324:22 0
36 *115:35 *355:70 0.000186182
37 *115:43 *120:27 7.28462e-05
38 *115:43 *120:71 8.00794e-05
39 *115:43 *162:12 2.02035e-05
40 *115:43 *167:28 7.52125e-05
41 *115:43 *167:86 6.7083e-05
42 *115:43 *181:63 0
43 *115:43 *343:18 5.45216e-06
44 *115:43 *355:14 4.56273e-05
45 *115:43 *355:42 9.28672e-05
46 *115:43 *355:53 5.01441e-05
47 *430:A2 *516:B 1.51658e-05
48 *494:B *516:B 0.000247381
49 *494:B *115:33 0.000325375
50 *535:A *527:A 9.12416e-06
51 *535:A *115:43 0.000396002
52 *557:A2 *527:A 0.000238392
53 *6:69 *527:A 4.43515e-05
54 *8:18 *527:A 0.000695366
55 *10:47 *115:35 0
56 *10:68 *115:12 0.00075048
57 *10:68 *115:35 0
58 *78:26 *516:B 1.56407e-05
59 *78:26 *527:A 0
60 *81:25 *115:35 0.000108016
61 *81:27 *115:35 0.00021615
62 *81:226 *115:35 0.00022794
63 *81:249 *115:35 9.97539e-05
64 *82:41 *115:12 0
65 *96:22 *516:B 0
66 *104:39 *115:12 0.000111302
67 *104:39 *115:35 0
68 *104:47 *115:12 0.000398575
69 *108:26 *527:A 2.47378e-05
70 *114:55 *516:B 5.0557e-06
71 *114:68 *115:12 0.000802668
*RES
1 *515:Y *115:12 46.7582 
2 *115:12 *516:B 20.1244 
3 *115:12 *115:33 3.80112 
4 *115:33 *115:35 59.1368 
5 *115:35 *115:43 16.1595 
6 *115:43 *527:A 48.475 
7 *115:43 *526:A 13.7491 
*END

*D_NET *116 0.0236644
*CONN
*I *518:B I *D sky130_fd_sc_hd__nor2_1
*I *534:A I *D sky130_fd_sc_hd__nor2_1
*I *532:A I *D sky130_fd_sc_hd__nor2_1
*I *526:B I *D sky130_fd_sc_hd__nor2_1
*I *517:Y O *D sky130_fd_sc_hd__nand3_1
*CAP
1 *518:B 4.17034e-05
2 *534:A 0
3 *532:A 0
4 *526:B 5.723e-05
5 *517:Y 0.00187691
6 *116:64 0.000859507
7 *116:50 0.00138642
8 *116:37 0.000936432
9 *116:29 0.00190042
10 *116:27 0.00195962
11 *116:10 0.00154388
12 *116:8 0.00285314
13 *518:B *157:16 6.08467e-05
14 *526:B *120:12 2.65831e-05
15 *116:8 *509:A1 0.000239796
16 *116:10 *342:15 0
17 *116:10 *355:14 0.000153225
18 *116:27 *535:C 2.41274e-06
19 *116:27 *606:CLK 6.23875e-05
20 *116:27 *120:12 0.00026818
21 *116:27 *355:14 3.39782e-05
22 *116:29 *544:A1 0.000360582
23 *116:29 *565:DE 0.000361446
24 *116:29 *152:20 0.000606528
25 *116:29 *167:14 0.000266345
26 *116:29 *181:63 0.000109131
27 *116:37 *532:B 0.000203717
28 *116:37 *117:43 0.000210481
29 *116:50 *373:A 3.3151e-05
30 *116:50 *117:43 0.000346357
31 *116:50 *117:58 0.000223991
32 *116:50 *157:16 0.000160617
33 *116:50 *343:90 8.99527e-05
34 *116:50 *344:84 0.000216901
35 *116:64 *505:A1 0.000299093
36 *116:64 *520:B 3.20069e-06
37 *116:64 *117:58 0.000170553
38 *116:64 *153:22 6.50727e-05
39 *505:A2 *116:64 0.000208685
40 *509:A2 *116:8 1.24886e-05
41 *510:A2 *116:64 0.000784901
42 *522:A *116:64 4.87343e-05
43 *527:A *116:10 0
44 *535:A *116:27 6.7671e-06
45 *556:A2 *116:50 1.91391e-05
46 *606:D *116:27 1.43041e-05
47 *668:D *116:27 0.00015324
48 *689:D *116:29 7.90605e-05
49 *10:68 *116:50 5.60291e-06
50 *80:58 *116:64 9.61496e-05
51 *81:25 *116:29 0.000247411
52 *81:27 *116:29 0.000961792
53 *81:226 *116:29 0.00060961
54 *81:249 *116:29 0.000263285
55 *82:92 *116:29 2.80964e-05
56 *82:98 *116:29 3.14449e-05
57 *103:30 *116:8 4.35713e-05
58 *104:39 *116:29 0.0015245
59 *109:14 *116:10 0.000402276
60 *109:14 *116:27 6.88938e-05
61 *111:24 *116:64 1.06805e-05
62 *115:35 *116:29 5.40012e-05
*RES
1 *517:Y *116:8 41.6481 
2 *116:8 *116:10 27.9929 
3 *116:10 *526:B 15.0271 
4 *116:10 *116:27 20.2841 
5 *116:27 *116:29 60.3826 
6 *116:29 *116:37 20.2869 
7 *116:37 *532:A 13.7491 
8 *116:37 *116:50 18.964 
9 *116:50 *116:64 44.1395 
10 *116:64 *534:A 9.24915 
11 *116:50 *518:B 10.5513 
*END

*D_NET *117 0.0238376
*CONN
*I *534:B I *D sky130_fd_sc_hd__nor2_1
*I *520:B I *D sky130_fd_sc_hd__nor2_1
*I *530:A I *D sky130_fd_sc_hd__nor2_1
*I *523:A I *D sky130_fd_sc_hd__nor2_1
*I *519:X O *D sky130_fd_sc_hd__lpflow_inputiso1p_1
*CAP
1 *534:B 0
2 *520:B 0.000602269
3 *530:A 1.98947e-05
4 *523:A 0.000152133
5 *519:X 0.00108262
6 *117:58 0.00143208
7 *117:43 0.00142096
8 *117:39 0.00179566
9 *117:37 0.00149179
10 *117:12 0.00150212
11 *520:B *371:A 0.000142393
12 *520:B *510:A1 0
13 *520:B *511:A 0.000100767
14 *520:B *123:32 0.000188195
15 *520:B *158:10 0
16 *523:A *523:B 6.3657e-05
17 *523:A *119:24 2.25583e-07
18 *523:A *119:32 1.05272e-06
19 *523:A *120:39 7.71295e-06
20 *523:A *157:48 1.68874e-05
21 *523:A *161:16 4.88477e-06
22 *523:A *335:19 1.78942e-05
23 *530:A *530:B 6.08467e-05
24 *530:A *166:18 2.16355e-05
25 *117:12 *157:48 0.000737223
26 *117:12 *161:16 1.33653e-05
27 *117:12 *180:60 0.000249468
28 *117:12 *257:38 0.00023019
29 *117:12 *261:34 6.68644e-06
30 *117:12 *343:167 2.02035e-05
31 *117:37 *119:24 0.0003233
32 *117:37 *157:48 0
33 *117:37 *160:16 0
34 *117:39 *119:24 0.00297014
35 *117:39 *180:60 0.000234641
36 *117:39 *180:87 0.00270986
37 *117:43 *532:B 6.71415e-05
38 *117:43 *119:22 0.000126013
39 *117:43 *119:24 7.08804e-06
40 *117:43 *249:28 5.74949e-05
41 *117:58 *505:A1 0
42 *117:58 *343:90 0.000208394
43 *510:A2 *117:58 0.000682898
44 *519:SLEEP *117:12 0.000516623
45 *529:A *117:37 5.04829e-06
46 *689:D *117:37 0.000107496
47 *3:20 *117:12 0.000586521
48 *10:16 *117:37 0.000143103
49 *11:38 *520:B 0.000349658
50 *11:60 *117:12 2.02035e-05
51 *80:58 *117:58 0.000937779
52 *112:22 *520:B 0
53 *113:10 *117:39 7.73793e-06
54 *113:10 *117:43 0.0008154
55 *113:54 *117:43 0.000213601
56 *113:54 *117:58 0.000267669
57 *114:84 *520:B 0.000142393
58 *116:37 *117:43 0.000210481
59 *116:50 *117:43 0.000346357
60 *116:50 *117:58 0.000223991
61 *116:64 *520:B 3.20069e-06
62 *116:64 *117:58 0.000170553
*RES
1 *519:X *117:12 20.4531 
2 *117:12 *523:A 18.4228 
3 *117:12 *117:37 20.2542 
4 *117:37 *117:39 56.1445 
5 *117:39 *117:43 21.4832 
6 *117:43 *530:A 14.4725 
7 *117:43 *117:58 36.2848 
8 *117:58 *520:B 32.8526 
9 *117:58 *534:B 9.24915 
*END

*D_NET *118 0.0167919
*CONN
*I *522:B I *D sky130_fd_sc_hd__nor2_1
*I *523:B I *D sky130_fd_sc_hd__nor2_1
*I *525:A I *D sky130_fd_sc_hd__nor2_1
*I *527:B I *D sky130_fd_sc_hd__nor2_1
*I *521:Y O *D sky130_fd_sc_hd__nand3_1
*CAP
1 *522:B 9.50802e-05
2 *523:B 0.000146008
3 *525:A 5.47805e-06
4 *527:B 0.000521777
5 *521:Y 0
6 *118:57 0.000802066
7 *118:28 0.00170238
8 *118:20 0.00237977
9 *118:18 0.00247651
10 *118:6 0.000721841
11 *522:B *181:10 0.000193479
12 *522:B *181:20 6.28168e-05
13 *523:B *525:B 6.36477e-05
14 *523:B *160:16 4.17531e-06
15 *523:B *335:19 1.70792e-05
16 *527:B *691:DE 0
17 *527:B *161:16 0
18 *527:B *343:138 2.99929e-05
19 *527:B *343:167 6.08467e-05
20 *118:18 *648:DE 0.000311355
21 *118:18 *155:198 3.29675e-05
22 *118:18 *164:60 7.19431e-05
23 *118:18 *164:71 4.58999e-05
24 *118:18 *164:75 0.000199329
25 *118:18 *181:20 0.000526304
26 *118:18 *253:20 9.34955e-06
27 *118:18 *344:84 0.000107496
28 *118:20 *562:CLK 0.000144531
29 *118:20 *636:CLK 0.00011475
30 *118:20 *155:44 5.12259e-05
31 *118:20 *161:16 4.05536e-05
32 *118:20 *161:74 0.000264301
33 *118:20 *164:30 0
34 *118:20 *164:49 0.00011764
35 *118:20 *164:60 1.81931e-05
36 *118:20 *166:42 0
37 *118:20 *168:26 0
38 *118:20 *220:28 0
39 *118:20 *241:16 0
40 *118:20 *253:20 2.27296e-05
41 *118:20 *311:28 5.69424e-05
42 *118:20 *328:32 0.000753721
43 *118:20 *337:26 0.00114915
44 *118:20 *340:12 1.33972e-05
45 *118:20 *343:18 4.29884e-05
46 *118:20 *343:138 0.000112013
47 *118:20 *346:32 0
48 *118:20 *362:26 0.000181927
49 *118:20 *362:62 1.04726e-05
50 *118:20 *362:64 1.75682e-05
51 *118:20 *363:74 0.000230647
52 *118:28 *465:A3 9.81087e-06
53 *118:28 *616:D 0
54 *118:28 *649:DE 1.60256e-05
55 *118:28 *166:42 8.11463e-06
56 *118:28 *343:138 0.000393718
57 *118:57 *1195:A 4.45999e-05
58 *118:57 *164:20 2.20457e-05
59 *118:57 *180:60 5.88834e-06
60 *118:57 *335:19 4.47441e-05
61 *382:A1 *527:B 0.000101605
62 *393:A2 *118:57 3.83794e-05
63 *394:A1 *118:57 3.8122e-05
64 *502:A2 *118:57 0
65 *523:A *523:B 6.3657e-05
66 *527:A *527:B 0.000766826
67 *3:32 *118:57 0.000107968
68 *3:46 *118:57 3.07848e-05
69 *4:47 *527:B 7.79202e-05
70 *4:47 *118:28 3.84563e-05
71 *4:47 *118:57 1.03401e-05
72 *6:10 *527:B 0.000142962
73 *6:69 *527:B 1.5714e-05
74 *6:69 *118:20 0
75 *6:87 *522:B 0.000245571
76 *6:87 *118:18 0.000203833
77 *81:249 *118:18 8.23459e-05
78 *106:8 *527:B 0.000345537
79 *108:26 *527:B 6.61215e-06
*RES
1 *521:Y *118:6 13.7491 
2 *118:6 *118:18 29.8315 
3 *118:18 *118:20 56.6453 
4 *118:20 *118:28 18.5309 
5 *118:28 *527:B 32.2375 
6 *118:28 *118:57 25.1318 
7 *118:57 *525:A 9.6229 
8 *118:57 *523:B 13.1434 
9 *118:6 *522:B 18.4879 
*END

*D_NET *119 0.0179315
*CONN
*I *532:B I *D sky130_fd_sc_hd__nor2_1
*I *525:B I *D sky130_fd_sc_hd__nor2_1
*I *531:B I *D sky130_fd_sc_hd__nor2_1
*I *533:A I *D sky130_fd_sc_hd__nor2_1
*I *524:Y O *D sky130_fd_sc_hd__nand3b_1
*CAP
1 *532:B 0.000244903
2 *525:B 2.07018e-05
3 *531:B 3.35434e-05
4 *533:A 0
5 *524:Y 0.000720388
6 *119:48 0.00159116
7 *119:32 0.00189875
8 *119:24 0.00231201
9 *119:22 0.00221992
10 *119:18 0.00116794
11 *525:B *335:19 1.29759e-05
12 *119:18 *150:14 0.000168109
13 *119:18 *156:14 0.000122833
14 *119:18 *193:17 5.481e-05
15 *119:18 *361:10 0.000341214
16 *119:22 *249:28 6.56617e-05
17 *119:24 *465:A3 5.39635e-06
18 *119:24 *614:CLK 0
19 *119:24 *626:CLK 3.76946e-05
20 *119:24 *157:30 0
21 *119:24 *157:34 0
22 *119:24 *157:48 0
23 *119:24 *180:60 1.2657e-05
24 *119:24 *324:22 0.00031379
25 *119:24 *328:32 3.80325e-05
26 *119:32 *533:B 4.77858e-05
27 *119:32 *120:39 3.29488e-05
28 *119:32 *161:16 8.20569e-05
29 *119:48 *469:S0 2.14842e-06
30 *119:48 *502:A1 1.10793e-05
31 *119:48 *533:B 2.91993e-05
32 *119:48 *166:59 4.2235e-05
33 *119:48 *180:28 0.000480361
34 *119:48 *180:41 4.17069e-06
35 *469:A0 *119:48 0.000211559
36 *502:A2 *531:B 2.87296e-05
37 *502:A2 *119:48 4.37831e-05
38 *523:A *119:24 2.25583e-07
39 *523:A *119:32 1.05272e-06
40 *523:B *525:B 6.36477e-05
41 *529:A *531:B 2.1203e-06
42 *529:A *119:24 0.000291141
43 *529:A *119:32 0.000189676
44 *4:12 *119:48 0.000336825
45 *10:47 *119:24 0.000187071
46 *10:68 *532:B 0.00016765
47 *10:68 *119:22 0.00013158
48 *10:68 *119:24 0.000255328
49 *47:12 *119:18 6.3082e-06
50 *95:18 *119:48 2.69587e-05
51 *114:26 *119:32 0.000176016
52 *115:35 *119:24 0
53 *116:37 *532:B 0.000203717
54 *117:37 *119:24 0.0003233
55 *117:39 *119:24 0.00297014
56 *117:43 *532:B 6.71415e-05
57 *117:43 *119:22 0.000126013
58 *117:43 *119:24 7.08804e-06
*RES
1 *524:Y *119:18 39.7804 
2 *119:18 *119:22 6.71732 
3 *119:22 *119:24 63.2893 
4 *119:24 *119:32 15.5714 
5 *119:32 *119:48 45.7937 
6 *119:48 *533:A 9.24915 
7 *119:32 *531:B 14.7506 
8 *119:24 *525:B 14.4725 
9 *119:18 *532:B 21.8832 
*END

*D_NET *120 0.0231885
*CONN
*I *530:B I *D sky130_fd_sc_hd__nor2_1
*I *529:B I *D sky130_fd_sc_hd__nor2_1
*I *533:B I *D sky130_fd_sc_hd__nor2_1
*I *535:C I *D sky130_fd_sc_hd__nor3_1
*I *528:Y O *D sky130_fd_sc_hd__a21oi_1
*CAP
1 *530:B 0.000748659
2 *529:B 1.47608e-05
3 *533:B 0.00152161
4 *535:C 9.71473e-05
5 *528:Y 0.000333039
6 *120:73 0.00216722
7 *120:71 0.00210569
8 *120:39 0.00235513
9 *120:27 0.00188332
10 *120:12 0.000807628
11 *530:B *501:A 2.81147e-06
12 *530:B *505:A1 4.34308e-05
13 *530:B *140:36 0.000620516
14 *530:B *153:22 0.00074064
15 *530:B *166:18 7.92757e-06
16 *530:B *346:32 0.000153427
17 *533:B *566:DE 0
18 *120:12 *355:14 9.75356e-05
19 *120:12 *355:42 0.000212559
20 *120:12 *355:53 2.3302e-05
21 *120:27 *162:12 0
22 *120:27 *343:18 1.83935e-05
23 *120:27 *355:53 2.57465e-06
24 *120:39 *382:B1 0.000510942
25 *120:39 *161:16 3.17436e-05
26 *120:39 *342:55 0.000189033
27 *120:71 *465:A3 5.06457e-05
28 *120:71 *162:12 0
29 *120:71 *167:86 6.47897e-05
30 *120:73 *620:CLK 0.000361679
31 *120:73 *662:CLK 0.000169632
32 *120:73 *147:18 0.00166728
33 *120:73 *151:14 0.000128104
34 *120:73 *166:28 0.000453979
35 *120:73 *166:38 0.00104239
36 *120:73 *167:86 8.77951e-05
37 *120:73 *180:111 0.000338808
38 *120:73 *282:40 1.5714e-05
39 *120:73 *306:28 0.000109465
40 *120:73 *356:100 0.000150991
41 *469:A0 *533:B 8.84023e-05
42 *469:A3 *533:B 0.000419522
43 *523:A *120:39 7.71295e-06
44 *526:B *120:12 2.65831e-05
45 *529:A *120:73 0.000122094
46 *530:A *530:B 6.08467e-05
47 *535:A *535:C 6.08467e-05
48 *556:A2 *530:B 1.80524e-05
49 *668:D *120:12 3.14055e-05
50 *668:D *120:27 1.9101e-05
51 *8:18 *120:12 1.78942e-05
52 *22:32 *120:39 0.00072546
53 *78:26 *120:39 0.000188075
54 *80:39 *530:B 0.000153427
55 *82:41 *530:B 0.000154145
56 *104:47 *530:B 1.07881e-05
57 *104:83 *529:B 6.08467e-05
58 *107:24 *120:39 0.000519148
59 *109:14 *535:C 6.08467e-05
60 *109:24 *535:C 6.08467e-05
61 *113:10 *120:73 0.000280927
62 *113:54 *530:B 0.000121899
63 *114:26 *529:B 6.08467e-05
64 *114:26 *533:B 2.77564e-05
65 *114:26 *120:39 2.72352e-05
66 *115:43 *120:27 7.28462e-05
67 *115:43 *120:71 8.00794e-05
68 *116:27 *535:C 2.41274e-06
69 *116:27 *120:12 0.00026818
70 *119:32 *533:B 4.77858e-05
71 *119:32 *120:39 3.29488e-05
72 *119:48 *533:B 2.91993e-05
*RES
1 *528:Y *120:12 23.4444 
2 *120:12 *535:C 16.1364 
3 *120:12 *120:27 4.44745 
4 *120:27 *120:39 8.18195 
5 *120:39 *533:B 44.8111 
6 *120:39 *529:B 14.4725 
7 *120:27 *120:71 4.83374 
8 *120:71 *120:73 54.9843 
9 *120:73 *530:B 28.2769 
*END

*D_NET *121 0.00772628
*CONN
*I *475:B1 I *D sky130_fd_sc_hd__o21ai_0
*I *474:Y O *D sky130_fd_sc_hd__a221oi_1
*CAP
1 *475:B1 0.000696632
2 *474:Y 0.00133988
3 *121:8 0.00203652
4 *475:B1 *474:B2 0
5 *475:B1 *132:22 0.000197514
6 *475:B1 *133:12 0.000782889
7 *475:B1 *142:12 0.000564534
8 *475:B1 *266:42 0
9 *475:B1 *350:414 8.08865e-05
10 *121:8 *474:B2 0.000144814
11 *121:8 *474:C1 2.41274e-06
12 *121:8 *548:A2 1.75e-05
13 *121:8 *135:8 0.00178961
14 *121:8 *271:26 1.83808e-05
15 *475:A2 *475:B1 4.87439e-05
16 *4:26 *475:B1 5.96422e-06
*RES
1 *474:Y *121:8 37.2113 
2 *121:8 *475:B1 45.0515 
*END

*D_NET *122 0.0183988
*CONN
*I *538:A2 I *D sky130_fd_sc_hd__o21a_1
*I *536:Y O *D sky130_fd_sc_hd__mux2i_1
*CAP
1 *538:A2 0.00881069
2 *536:Y 0.00881069
3 *538:A2 dout[3] 6.98716e-05
4 *538:A2 *545:A2 4.64359e-05
5 *538:A2 *123:32 8.79485e-06
6 *538:A2 *152:20 3.42849e-05
7 *538:A2 *182:171 0.000121621
8 *383:A2 *538:A2 7.00991e-05
9 *428:A1 *538:A2 0
10 *35:28 *538:A2 1.75765e-05
11 *55:20 *538:A2 5.47599e-05
12 *78:26 *538:A2 2.84373e-05
13 *97:16 *538:A2 0.000325557
14 *104:14 *538:A2 0
*RES
1 *536:Y *538:A2 40.9504 
*END

*D_NET *123 0.0144681
*CONN
*I *538:B1 I *D sky130_fd_sc_hd__o21a_1
*I *537:Y O *D sky130_fd_sc_hd__a221oi_1
*CAP
1 *538:B1 0
2 *537:Y 0.00515617
3 *123:32 0.00515617
4 *123:32 *537:B2 0.000111722
5 *123:32 *538:A1 0.000104374
6 *123:32 *148:28 0.000158371
7 *123:32 *152:20 2.81147e-06
8 *123:32 *248:34 3.8519e-05
9 *383:A2 *123:32 8.62625e-06
10 *395:B *123:32 0.000118044
11 *520:B *123:32 0.000188195
12 *538:A2 *123:32 8.79485e-06
13 *11:38 *123:32 0.00114978
14 *11:140 *123:32 1.19618e-05
15 *44:30 *123:32 0.0022491
16 *78:26 *123:32 0
17 *80:8 *123:32 5.42506e-06
18 *104:14 *123:32 0
*RES
1 *537:Y *123:32 48.8659 
2 *123:32 *538:B1 9.24915 
*END

*D_NET *125 0.0179925
*CONN
*I *541:A2 I *D sky130_fd_sc_hd__o21a_1
*I *539:Y O *D sky130_fd_sc_hd__mux2i_1
*CAP
1 *541:A2 0
2 *539:Y 0.0039639
3 *125:28 0.0039639
4 *125:28 dout[3] 0
5 *125:28 *401:B2 0.000258088
6 *125:28 *431:A1 1.07802e-06
7 *125:28 *434:S 6.21462e-05
8 *125:28 *539:S 8.6297e-06
9 *125:28 *1197:A 4.45556e-05
10 *125:28 *161:108 0.000282048
11 *125:28 *161:125 0.00174884
12 *125:28 *167:167 0.000433994
13 *125:28 *170:107 0
14 *125:28 *182:189 7.83546e-05
15 *125:28 *220:28 8.21523e-05
16 *125:28 *220:64 0.000202716
17 *125:28 *226:36 6.2753e-05
18 *125:28 *255:32 1.43499e-05
19 *125:28 *334:54 1.05803e-05
20 *125:28 *336:159 7.82457e-05
21 *125:28 *350:328 3.17436e-05
22 *125:28 *365:75 0.000149866
23 *408:A2 *125:28 7.12632e-06
24 *461:A0 *125:28 8.79248e-05
25 *462:A1 *125:28 7.47244e-06
26 *462:A2 *125:28 0.000568263
27 *593:D *125:28 0.00169244
28 *659:D *125:28 0.000308892
29 *11:38 *125:28 0.000162072
30 *69:26 *125:28 0.0023263
31 *80:215 *125:28 0.000447827
32 *81:202 *125:28 0.000855989
33 *87:30 *125:28 3.11366e-05
34 *89:12 *125:28 1.91246e-05
*RES
1 *539:Y *125:28 46.858 
2 *125:28 *541:A2 13.7491 
*END

*D_NET *126 0.00608676
*CONN
*I *541:B1 I *D sky130_fd_sc_hd__o21a_1
*I *540:Y O *D sky130_fd_sc_hd__a221oi_1
*CAP
1 *541:B1 2.7855e-05
2 *540:Y 0.00174186
3 *126:20 0.00176971
4 *541:B1 *547:A1 6.08467e-05
5 *126:20 *434:S 0.00149388
6 *126:20 *547:A1 0.000332914
7 *126:20 *136:20 0.000263682
8 *126:20 *216:12 2.60879e-06
9 *126:20 *251:36 2.08076e-05
10 *126:20 *254:22 3.04443e-05
11 *126:20 *310:36 7.67398e-05
12 *126:20 *351:542 0
13 *393:A2 *126:20 0
14 *408:A2 *126:20 0.000214921
15 *411:B1 *126:20 5.04879e-05
16 *35:28 *126:20 0
17 *36:18 *126:20 0
18 *89:12 *126:20 0
*RES
1 *540:Y *126:20 49.7712 
2 *126:20 *541:B1 9.97254 
*END

*D_NET *129 0.0226426
*CONN
*I *545:A2 I *D sky130_fd_sc_hd__o21ai_0
*I *543:Y O *D sky130_fd_sc_hd__mux2i_1
*CAP
1 *545:A2 0.0105333
2 *543:Y 0.0105333
3 *545:A2 *431:A0 7.40684e-06
4 *545:A2 *437:A1 0.000126227
5 *545:A2 *543:A1 3.24105e-05
6 *545:A2 *569:CLK 3.99086e-06
7 *545:A2 *700:CLK 4.31351e-05
8 *545:A2 *1200:A 0
9 *545:A2 *131:38 0.000193222
10 *545:A2 *139:16 0.000123886
11 *545:A2 *173:20 0.000239662
12 *545:A2 *317:22 6.64732e-05
13 *401:C1 *545:A2 0
14 *411:C1 *545:A2 7.631e-05
15 *416:A2 *545:A2 5.48777e-05
16 *428:A1 *545:A2 3.91345e-05
17 *462:A2 *545:A2 4.0143e-05
18 *538:A2 *545:A2 4.64359e-05
19 *13:128 *545:A2 0.000171263
20 *44:30 *545:A2 1.31877e-05
21 *47:12 *545:A2 0.000207266
22 *88:32 *545:A2 4.01938e-05
23 *96:16 *545:A2 5.08625e-05
*RES
1 *543:Y *545:A2 47.213 
*END

*D_NET *130 0.0239131
*CONN
*I *545:B1 I *D sky130_fd_sc_hd__o21ai_0
*I *544:Y O *D sky130_fd_sc_hd__a221oi_1
*CAP
1 *545:B1 0.000183536
2 *544:Y 0.00587651
3 *130:52 0.00606004
4 *545:B1 *380:A 3.14645e-05
5 *545:B1 *201:22 0.000134733
6 *545:B1 *347:134 0.000114518
7 *545:B1 *350:297 9.27114e-05
8 *545:B1 *350:310 6.11872e-05
9 *130:52 *380:A 0.00058316
10 *130:52 *437:A0 0.00248071
11 *130:52 *447:A1 1.27071e-05
12 *130:52 *538:A1 1.1573e-05
13 *130:52 *539:A1 0.00112542
14 *130:52 *544:A1 0.000943363
15 *130:52 *612:D 0.000463136
16 *130:52 *632:CLK 2.54713e-05
17 *130:52 *1200:A 0
18 *130:52 *155:93 7.65911e-05
19 *130:52 *157:30 4.15739e-05
20 *130:52 *157:131 0.000356784
21 *130:52 *182:90 0.000229097
22 *130:52 *201:18 4.87042e-05
23 *130:52 *215:40 0.000481285
24 *130:52 *217:62 3.32165e-06
25 *130:52 *217:80 0.000114881
26 *130:52 *234:56 0.000312592
27 *130:52 *275:36 3.07192e-06
28 *130:52 *301:30 0.000158469
29 *130:52 *309:32 7.0222e-05
30 *130:52 *318:16 9.49244e-05
31 *130:52 *321:46 2.16786e-05
32 *130:52 *323:32 0.000161887
33 *130:52 *324:22 0.00128352
34 *130:52 *332:32 2.46979e-05
35 *130:52 *334:54 0.00064022
36 *130:52 *340:50 0.000927528
37 *130:52 *350:285 1.60578e-06
38 *130:52 *350:297 9.59795e-05
39 *130:52 *351:109 9.97612e-05
40 *130:52 *361:30 4.75721e-06
41 *5:24 *545:B1 0.000211559
42 *13:96 *130:52 0.000113819
43 *13:111 *130:52 6.16209e-06
44 *13:128 *130:52 3.59569e-06
45 *60:62 *130:52 0.000124521
*RES
1 *544:Y *130:52 49.7459 
2 *130:52 *545:B1 20.7661 
*END

*D_NET *131 0.0112919
*CONN
*I *549:A1 I *D sky130_fd_sc_hd__a21o_1
*I *545:Y O *D sky130_fd_sc_hd__o21ai_0
*CAP
1 *549:A1 0
2 *545:Y 0.00355541
3 *131:38 0.00355541
4 *131:38 *434:S 0.00126495
5 *131:38 *455:A1 0.000717639
6 *131:38 *486:A1 0.000542344
7 *131:38 *540:B2 0.000241923
8 *131:38 *551:A1 0.000127164
9 *131:38 *215:40 2.57526e-05
10 *131:38 *228:40 1.48429e-05
11 *131:38 *231:28 8.20799e-06
12 *131:38 *231:38 4.6735e-05
13 *131:38 *255:32 6.8017e-05
14 *131:38 *350:310 0.000162739
15 *131:38 *350:389 5.56778e-05
16 *131:38 *351:528 2.28104e-05
17 *393:A2 *131:38 0.000126896
18 *401:C1 *131:38 7.79853e-05
19 *411:C1 *131:38 3.64684e-05
20 *416:A2 *131:38 0.000120157
21 *545:A2 *131:38 0.000193222
22 *3:93 *131:38 0
23 *5:24 *131:38 0.000180178
24 *51:38 *131:38 0.000127807
25 *88:32 *131:38 1.95926e-05
*RES
1 *545:Y *131:38 44.4113 
2 *131:38 *549:A1 9.24915 
*END

*D_NET *132 0.00187286
*CONN
*I *484:A2 I *D sky130_fd_sc_hd__a31oi_1
*I *475:Y O *D sky130_fd_sc_hd__o21ai_0
*CAP
1 *484:A2 0
2 *475:Y 0.000564857
3 *132:22 0.000564857
4 *132:22 *457:A1 6.64392e-05
5 *132:22 *233:34 6.3657e-05
6 *132:22 *304:30 0.000143151
7 *454:B1 *132:22 5.20059e-05
8 *475:B1 *132:22 0.000197514
9 *484:B1 *132:22 1.1128e-05
10 *4:26 *132:22 5.49828e-05
11 *64:10 *132:22 0.000154271
*RES
1 *475:Y *132:22 43.1893 
2 *132:22 *484:A2 9.24915 
*END

*D_NET *133 0.00895894
*CONN
*I *548:A2 I *D sky130_fd_sc_hd__o21ai_0
*I *546:Y O *D sky130_fd_sc_hd__mux2i_1
*CAP
1 *548:A2 0.00046346
2 *546:Y 7.41897e-05
3 *133:12 0.0018789
4 *133:8 0.00148963
5 *548:A2 *134:14 0.00173873
6 *548:A2 *271:26 0.000724749
7 *133:8 *546:A0 0.000209312
8 *133:8 *336:58 0.000227258
9 *133:12 *479:A1 0.000160729
10 *133:12 *483:A1 0.000201511
11 *133:12 *142:12 0.000247987
12 *133:12 *144:34 0
13 *133:12 *217:44 5.4342e-05
14 *133:12 *233:34 0
15 *133:12 *295:22 0.000256322
16 *133:12 *304:30 8.08012e-05
17 *133:12 *350:408 0.000103724
18 *454:B1 *133:12 0
19 *469:A0 *548:A2 0.000157517
20 *470:A2 *133:12 0
21 *475:B1 *133:12 0.000782889
22 *23:26 *133:12 5.99155e-05
23 *48:10 *133:12 2.68703e-05
24 *75:30 *133:12 2.60879e-06
25 *121:8 *548:A2 1.75e-05
*RES
1 *546:Y *133:8 17.2456 
2 *133:8 *133:12 42.0437 
3 *133:12 *548:A2 29.4078 
*END

*D_NET *134 0.0123844
*CONN
*I *548:B1 I *D sky130_fd_sc_hd__o21ai_0
*I *547:Y O *D sky130_fd_sc_hd__a221oi_1
*CAP
1 *548:B1 0
2 *547:Y 5.36189e-05
3 *134:14 0.0011507
4 *134:10 0.00244242
5 *134:8 0.00134534
6 *134:8 *547:B2 4.28856e-07
7 *134:10 *240:16 0.000342425
8 *134:10 *350:351 2.19138e-05
9 *134:10 *351:542 2.48898e-05
10 *134:14 *135:8 0.00117519
11 *469:A0 *134:14 0.000448939
12 *548:A2 *134:14 0.00173873
13 *35:28 *134:10 0.00015922
14 *36:18 *134:10 0.00065394
15 *39:10 *134:10 0.00282668
16 *89:20 *134:10 0
*RES
1 *547:Y *134:8 14.4725 
2 *134:8 *134:10 55.8148 
3 *134:10 *134:14 49.0371 
4 *134:14 *548:B1 9.24915 
*END

*D_NET *135 0.00693985
*CONN
*I *549:A2 I *D sky130_fd_sc_hd__a21o_1
*I *548:Y O *D sky130_fd_sc_hd__o21ai_0
*CAP
1 *549:A2 0.00120867
2 *548:Y 0.000479559
3 *135:8 0.00168823
4 *549:A2 *455:A1 1.50862e-05
5 *549:A2 *474:B2 0
6 *549:A2 *145:32 0
7 *549:A2 *262:26 0.000390421
8 *135:8 *474:B2 0.000157517
9 *51:38 *549:A2 0
10 *57:26 *549:A2 2.538e-05
11 *67:20 *549:A2 0
12 *110:40 *549:A2 1.01823e-05
13 *121:8 *135:8 0.00178961
14 *134:14 *135:8 0.00117519
*RES
1 *548:Y *135:8 41.6481 
2 *135:8 *549:A2 42.9878 
*END

*D_NET *136 0.00929955
*CONN
*I *550:C1 I *D sky130_fd_sc_hd__o211ai_1
*I *549:X O *D sky130_fd_sc_hd__a21o_1
*CAP
1 *550:C1 0
2 *549:X 0.00101565
3 *136:26 0.00124431
4 *136:20 0.00225996
5 *136:20 *434:S 3.65052e-05
6 *136:20 *465:A3 6.04627e-05
7 *136:20 *465:S0 0.00012831
8 *136:20 *182:152 3.81342e-05
9 *136:20 *231:38 5.79001e-05
10 *136:20 *248:34 0.00038036
11 *136:20 *263:34 0
12 *136:20 *350:373 3.54216e-05
13 *136:20 *350:389 0.000207821
14 *136:26 *451:S1 6.08504e-06
15 *136:26 *145:32 8.70662e-06
16 *136:26 *165:10 0.00215009
17 *136:26 *182:171 0
18 *136:26 *197:10 0.000422535
19 *136:26 *329:28 0.00019415
20 *136:26 *350:266 4.20184e-06
21 *136:26 *350:297 0
22 *393:A2 *136:20 0
23 *58:28 *136:20 4.20312e-06
24 *70:30 *136:26 0.000781061
25 *92:12 *136:26 0
26 *92:16 *136:26 0
27 *126:20 *136:20 0.000263682
*RES
1 *549:X *136:20 29.7027 
2 *136:20 *136:26 47.6984 
3 *136:26 *550:C1 9.24915 
*END

*D_NET *137 0.00838728
*CONN
*I *552:A2 I *D sky130_fd_sc_hd__a21oi_1
*I *550:Y O *D sky130_fd_sc_hd__o211ai_1
*CAP
1 *552:A2 0.000825564
2 *550:Y 0.00121334
3 *137:8 0.0020389
4 *552:A2 *459:A1 0.00257382
5 *552:A2 *138:28 0.00035185
6 *137:8 dout[6] 0.000803962
7 *137:8 *478:A2 0
8 *137:8 *203:10 0.000298059
9 *137:8 *329:32 0
10 *409:A2 *137:8 4.74668e-05
11 *11:158 *137:8 0.000234314
*RES
1 *550:Y *137:8 49.6318 
2 *137:8 *552:A2 43.8665 
*END

*D_NET *138 0.0132111
*CONN
*I *552:B1 I *D sky130_fd_sc_hd__a21oi_1
*I *551:Y O *D sky130_fd_sc_hd__o21ai_0
*CAP
1 *552:B1 0
2 *551:Y 0.00140588
3 *138:28 0.00242351
4 *138:16 0.00382939
5 *138:16 *551:A1 0
6 *138:28 dout[6] 0
7 *138:28 *459:A1 0.000287267
8 *138:28 *143:14 0.000211245
9 *138:28 *179:26 1.60578e-06
10 *138:28 *225:34 0.000641774
11 *138:28 *273:30 0.000159637
12 *138:28 *285:34 0.00168418
13 *138:28 *350:661 2.86353e-06
14 *401:C1 *138:28 0.000152077
15 *462:B1 *138:16 0
16 *552:A2 *138:28 0.00035185
17 *42:22 *138:28 0.00123892
18 *58:28 *138:28 0
19 *59:18 *138:28 0.000820854
20 *63:8 *138:16 0
*RES
1 *551:Y *138:16 49.8535 
2 *138:16 *138:28 49.0455 
3 *138:28 *552:B1 9.24915 
*END

*D_NET *139 0.00487174
*CONN
*I *554:B I *D sky130_fd_sc_hd__and2_0
*I *553:X O *D sky130_fd_sc_hd__xor2_1
*CAP
1 *554:B 0.0003883
2 *553:X 0.000864245
3 *139:16 0.00125254
4 *554:B *355:134 6.85963e-05
5 *554:B *355:140 2.44829e-05
6 *139:16 *377:A 7.86825e-06
7 *139:16 *383:C1 5.18421e-05
8 *139:16 *543:A1 7.84444e-05
9 *139:16 *543:S 0.000327067
10 *139:16 *553:A 6.08467e-05
11 *139:16 *565:DE 1.9031e-05
12 *139:16 *568:CLK 6.94369e-05
13 *139:16 *700:CLK 4.04556e-05
14 *139:16 *167:28 5.43404e-05
15 *139:16 *168:101 0.000211991
16 *139:16 *173:20 4.3116e-06
17 *139:16 *309:32 7.94598e-05
18 *545:A2 *139:16 0.000123886
19 *47:12 *139:16 0.000594169
20 *80:8 *139:16 0
21 *80:39 *139:16 0.00014074
22 *81:12 *139:16 2.31487e-05
23 *82:111 *139:16 0.000305939
24 *96:16 *139:16 2.81957e-05
25 *96:22 *139:16 5.23955e-05
*RES
1 *553:X *139:16 47.8692 
2 *139:16 *554:B 15.398 
*END

*D_NET *140 0.0160993
*CONN
*I *557:B1 I *D sky130_fd_sc_hd__a21oi_1
*I *556:Y O *D sky130_fd_sc_hd__o21ai_0
*CAP
1 *557:B1 0
2 *556:Y 0.0029218
3 *140:36 0.0029218
4 *140:36 *382:B1 0.000456102
5 *140:36 *501:A 3.20069e-06
6 *140:36 *502:B1 1.09551e-05
7 *140:36 *507:B1 5.64139e-06
8 *140:36 *556:A1 0.00012314
9 *140:36 *557:A1 5.04829e-06
10 *140:36 *654:CLK 4.20184e-06
11 *140:36 *153:22 0.00029554
12 *140:36 *157:20 0
13 *140:36 *161:16 0.000465077
14 *140:36 *166:18 2.1558e-06
15 *140:36 *175:16 0.000131401
16 *140:36 *180:60 6.39153e-06
17 *140:36 *180:111 5.19641e-05
18 *140:36 *257:38 0.000606467
19 *140:36 *346:32 0.00219514
20 *501:C *140:36 6.08467e-05
21 *530:B *140:36 0.000620516
22 *556:A2 *140:36 0.00281527
23 *557:A2 *140:36 0.00206294
24 *10:47 *140:36 0.000167099
25 *104:47 *140:36 9.00714e-07
26 *105:10 *140:36 6.08467e-05
27 *106:8 *140:36 7.97098e-06
28 *113:8 *140:36 3.99086e-06
29 *113:54 *140:36 6.24695e-05
30 *114:10 *140:36 3.04331e-05
*RES
1 *556:Y *140:36 44.8056 
2 *140:36 *557:B1 9.24915 
*END

*D_NET *142 0.00796434
*CONN
*I *621:D I *D sky130_fd_sc_hd__dfxtp_1
*I *464:Y O *D sky130_fd_sc_hd__a21oi_1
*CAP
1 *621:D 0.000133685
2 *464:Y 0.000478989
3 *142:12 0.00141193
4 *142:8 0.00175723
5 *621:D *288:40 4.19529e-05
6 *621:D *330:48 0.000202499
7 *142:8 *452:A2 1.31657e-05
8 *142:12 *474:B2 0
9 *142:12 *479:A1 0.000169657
10 *142:12 *483:A1 0.000201511
11 *142:12 *546:A0 0.000685735
12 *142:12 *1196:A 0.000139221
13 *142:12 *263:34 0.00102737
14 *142:12 *266:42 0
15 *142:12 *295:22 5.2504e-06
16 *142:12 *350:408 9.64809e-05
17 *142:12 *350:414 0.000123687
18 *142:12 *358:10 0.000157115
19 *464:A2 *142:8 0.000446428
20 *475:B1 *142:12 0.000564534
21 *23:26 *142:12 5.99155e-05
22 *67:20 *142:12 0
23 *133:12 *142:12 0.000247987
*RES
1 *464:Y *142:8 26.6738 
2 *142:8 *142:12 48.6877 
3 *142:12 *621:D 13.3725 
*END

*D_NET *143 0.0115435
*CONN
*I *478:A2 I *D sky130_fd_sc_hd__o21ai_0
*I *476:Y O *D sky130_fd_sc_hd__mux2i_1
*CAP
1 *478:A2 0.00145873
2 *476:Y 0.00224919
3 *143:14 0.00370792
4 *478:A2 *437:A1 9.72565e-05
5 *478:A2 *478:A1 3.5534e-06
6 *478:A2 *478:B1 1.45622e-05
7 *478:A2 *350:297 0
8 *143:14 dout[6] 5.52229e-05
9 *143:14 *402:A1 2.38446e-05
10 *143:14 *440:A1 0.000140176
11 *143:14 *476:A0 0.000350587
12 *143:14 *148:28 6.03122e-05
13 *143:14 *179:26 0.00124021
14 *143:14 *208:32 0.000913226
15 *143:14 *285:34 0
16 *409:A2 *478:A2 0
17 *11:158 *478:A2 0
18 *42:22 *143:14 0
19 *49:12 *478:A2 0
20 *94:26 *143:14 0.0010175
21 *137:8 *478:A2 0
22 *138:28 *143:14 0.000211245
*RES
1 *476:Y *143:14 33.2632 
2 *143:14 *478:A2 47.6655 
*END

*D_NET *144 0.00757259
*CONN
*I *619:D I *D sky130_fd_sc_hd__dfxtp_1
*I *472:Y O *D sky130_fd_sc_hd__a21oi_1
*CAP
1 *619:D 0
2 *472:Y 0.00161787
3 *144:34 0.00161787
4 *144:34 *546:A0 0.000147044
5 *144:34 *209:52 0.000295744
6 *144:34 *226:36 0.000157671
7 *144:34 *231:28 0.000219506
8 *144:34 *262:26 8.1632e-05
9 *144:34 *271:26 0.000862085
10 *144:34 *295:22 0.000150585
11 *144:34 *299:90 0.000304981
12 *144:34 *313:20 5.96686e-05
13 *470:A2 *144:34 0
14 *472:B1 *144:34 0.000459781
15 *12:26 *144:34 0.00157944
16 *31:46 *144:34 1.87227e-05
17 *133:12 *144:34 0
*RES
1 *472:Y *144:34 44.1116 
2 *144:34 *619:D 9.24915 
*END

*D_NET *145 0.0105062
*CONN
*I *617:D I *D sky130_fd_sc_hd__dfxtp_1
*I *487:Y O *D sky130_fd_sc_hd__a21oi_1
*CAP
1 *617:D 0.000244904
2 *487:Y 0.000918232
3 *145:32 0.00168328
4 *145:22 0.00235661
5 *617:D *465:A0 5.91398e-05
6 *617:D *197:10 6.08467e-05
7 *145:22 *266:42 0.00161954
8 *145:32 dout[1] 0
9 *145:32 *421:B2 0
10 *145:32 *455:A1 0.000717351
11 *145:32 *460:S1 3.6593e-05
12 *145:32 *197:10 0.000103484
13 *145:32 *198:20 0
14 *145:32 *262:26 0
15 *145:32 *310:36 0.000387556
16 *470:A2 *145:22 0.000309108
17 *470:B1 *145:22 0.000235519
18 *487:B1 *145:22 0.000247983
19 *549:A2 *145:32 0
20 *87:30 *145:32 3.97063e-06
21 *91:16 *145:32 0.000268556
22 *92:16 *145:32 0
23 *99:12 *145:32 0.00124481
24 *110:40 *145:32 0
25 *136:26 *145:32 8.70662e-06
*RES
1 *487:Y *145:22 49.3643 
2 *145:22 *145:32 47.1138 
3 *145:32 *617:D 18.9636 
*END

*D_NET *146 0.0100366
*CONN
*I *615:D I *D sky130_fd_sc_hd__dfxtp_1
*I *492:Y O *D sky130_fd_sc_hd__a21oi_1
*CAP
1 *615:D 0.000335834
2 *492:Y 0.00173528
3 *146:26 0.00207111
4 *615:D *615:CLK 0.000108316
5 *146:26 *636:CLK 6.85329e-05
6 *146:26 *654:DE 5.60804e-05
7 *146:26 *153:22 0.000250479
8 *146:26 *155:198 0.000422331
9 *146:26 *280:16 5.94475e-05
10 *146:26 *317:22 0.000265167
11 *146:26 *328:32 0.000131362
12 *146:26 *344:84 9.95008e-05
13 *146:26 *347:51 4.39449e-06
14 *146:26 *362:18 0
15 *146:26 *362:64 4.30869e-05
16 *410:A2 *146:26 1.84183e-05
17 *6:69 *146:26 0.000116125
18 *108:26 *146:26 0.00211406
19 *111:24 *146:26 0.00213705
*RES
1 *492:Y *146:26 46.1459 
2 *146:26 *615:D 16.1274 
*END

*D_NET *147 0.00659751
*CONN
*I *613:D I *D sky130_fd_sc_hd__dfxtp_1
*I *494:Y O *D sky130_fd_sc_hd__nor3b_1
*CAP
1 *613:D 0
2 *494:Y 0.000150228
3 *147:18 0.000977788
4 *147:12 0.00112802
5 *147:12 *373:A 7.92757e-06
6 *147:12 *168:10 0.000194736
7 *147:12 *180:111 0.000127807
8 *147:12 *363:32 3.08636e-06
9 *147:18 *588:CLK 0.000106543
10 *147:18 *613:CLK 0.000208168
11 *147:18 *1201:A 0.000181732
12 *147:18 *151:14 0.00102031
13 *147:18 *157:20 2.31063e-05
14 *147:18 *168:10 0.000678224
15 *147:18 *168:24 2.37478e-05
16 *147:18 *180:111 2.56929e-05
17 *494:B *147:12 3.82228e-05
18 *82:155 *147:18 3.48985e-05
19 *120:73 *147:18 0.00166728
*RES
1 *494:Y *147:12 18.7694 
2 *147:12 *147:18 44.2775 
3 *147:18 *613:D 9.24915 
*END

*D_NET *148 0.0167695
*CONN
*I *611:D I *D sky130_fd_sc_hd__dfxtp_1
*I *497:Y O *D sky130_fd_sc_hd__nor2_1
*CAP
1 *611:D 0.000142876
2 *497:Y 0.0036377
3 *148:28 0.00378057
4 *611:D *420:A1 4.21171e-06
5 *611:D *155:44 1.91246e-05
6 *611:D *241:48 9.00905e-06
7 *611:D *244:24 1.85244e-05
8 *611:D *337:8 6.54102e-05
9 *611:D *356:63 6.96362e-05
10 *148:28 *440:A1 7.12788e-06
11 *148:28 *476:A1 0.000106701
12 *148:28 *476:S 4.69966e-05
13 *148:28 *537:B2 2.41483e-05
14 *148:28 *155:44 0.000807917
15 *148:28 *167:117 0.00034605
16 *148:28 *168:63 0.000187272
17 *148:28 *179:26 6.03122e-05
18 *148:28 *219:38 0.00026204
19 *148:28 *220:28 0.000225545
20 *148:28 *222:38 1.99996e-05
21 *148:28 *225:34 5.94811e-05
22 *148:28 *242:18 0.000105586
23 *148:28 *298:30 0.000153427
24 *148:28 *319:36 0.00015927
25 *148:28 *350:172 0.000169503
26 *11:44 *611:D 0.000205145
27 *11:140 *148:28 1.22567e-05
28 *13:35 *611:D 0.000117841
29 *40:26 *148:28 0.00337914
30 *70:30 *148:28 3.17152e-05
31 *93:30 *148:28 0.0022997
32 *94:26 *148:28 1.65393e-05
33 *123:32 *148:28 0.000158371
34 *143:14 *148:28 6.03122e-05
*RES
1 *497:Y *148:28 46.1253 
2 *148:28 *611:D 18.6427 
*END

*D_NET *149 0.00625549
*CONN
*I *608:D I *D sky130_fd_sc_hd__dfxtp_2
*I *499:Y O *D sky130_fd_sc_hd__a21oi_1
*CAP
1 *608:D 0.000290592
2 *499:Y 0.00107496
3 *149:22 0.00136556
4 *608:D *420:A1 0.000620438
5 *608:D *167:86 3.46168e-05
6 *608:D *169:8 0.000623549
7 *149:22 *420:A1 7.48886e-05
8 *149:22 *438:A1 6.34564e-05
9 *149:22 *499:A1 4.48152e-05
10 *149:22 *513:B 0
11 *149:22 *647:CLK 0.000195764
12 *149:22 *162:12 4.09765e-05
13 *149:22 *169:8 0.000889848
14 *149:22 *282:40 0.000159526
15 *149:22 *343:167 0.000130273
16 *149:22 *346:62 0.000155751
17 *393:A2 *149:22 0.000131355
18 *469:A0 *149:22 0.000119303
19 *519:SLEEP *149:22 3.63593e-05
20 *11:60 *149:22 6.35996e-05
21 *57:26 *149:22 0.000139851
*RES
1 *499:Y *149:22 49.298 
2 *149:22 *608:D 29.8658 
*END

*D_NET *150 0.00386083
*CONN
*I *622:D I *D sky130_fd_sc_hd__dfxtp_1
*I *504:Y O *D sky130_fd_sc_hd__nor2_1
*CAP
1 *622:D 0
2 *504:Y 0.00123111
3 *150:14 0.00123111
4 *150:14 *1201:A 3.82228e-05
5 *150:14 *1204:A 9.99867e-06
6 *150:14 *157:20 0.00040182
7 *150:14 *168:10 0.000396846
8 *150:14 *253:20 0.000304687
9 *150:14 *361:10 1.37563e-05
10 *504:A *150:14 6.51738e-05
11 *119:18 *150:14 0.000168109
*RES
1 *504:Y *150:14 48.4707 
2 *150:14 *622:D 9.24915 
*END

*D_NET *151 0.0081381
*CONN
*I *618:D I *D sky130_fd_sc_hd__dfxtp_1
*I *506:Y O *D sky130_fd_sc_hd__a21oi_1
*CAP
1 *618:D 0.000127201
2 *506:Y 0.000368426
3 *151:14 0.00183657
4 *151:12 0.00207779
5 *618:D *1172:A 0.000252007
6 *151:12 *394:B1 1.31795e-05
7 *151:12 *616:D 0
8 *151:12 *164:20 6.50727e-05
9 *151:12 *164:26 7.05908e-06
10 *151:12 *175:16 2.33103e-06
11 *151:12 *180:60 9.04241e-05
12 *151:14 *394:B1 5.90654e-06
13 *151:14 *543:A1 6.54566e-05
14 *151:14 *616:D 0.000135906
15 *151:14 *620:CLK 0.000349688
16 *151:14 *662:CLK 0.0001744
17 *151:14 *157:20 0.000110389
18 *151:14 *164:26 0.000275717
19 *151:14 *164:30 0
20 *151:14 *167:86 8.68321e-05
21 *151:14 *219:38 6.00956e-05
22 *151:14 *226:36 3.29441e-05
23 *151:14 *306:28 0.000395225
24 *151:14 *344:16 7.86825e-06
25 *151:14 *356:100 0.000156588
26 *151:14 *356:139 7.36499e-05
27 *393:A2 *151:12 1.24195e-05
28 *393:A2 *151:14 5.01721e-05
29 *3:32 *151:12 0.000156376
30 *120:73 *151:14 0.000128104
31 *147:18 *151:14 0.00102031
*RES
1 *506:Y *151:12 21.7517 
2 *151:12 *151:14 51.931 
3 *151:14 *618:D 16.7452 
*END

*D_NET *152 0.00529913
*CONN
*I *614:D I *D sky130_fd_sc_hd__dfxtp_1
*I *508:X O *D sky130_fd_sc_hd__and3_1
*CAP
1 *614:D 0.000294038
2 *508:X 0.000968248
3 *152:20 0.00126229
4 *614:D *614:CLK 0.000370359
5 *614:D *181:63 7.23346e-05
6 *614:D *311:28 0.000108657
7 *152:20 *543:S 0.000285011
8 *152:20 *565:DE 0.000140683
9 *152:20 *565:CLK 1.03403e-05
10 *152:20 *158:107 0.000107155
11 *152:20 *181:63 7.47581e-05
12 *152:20 *214:18 0.000168309
13 *152:20 *361:42 0
14 *428:A2 *152:20 9.80784e-05
15 *538:A2 *152:20 3.42849e-05
16 *44:30 *152:20 7.56859e-06
17 *80:8 *152:20 0.000404119
18 *82:98 *152:20 0.000261618
19 *97:16 *152:20 2.0535e-05
20 *104:14 *152:20 0
21 *104:39 *152:20 1.4091e-06
22 *116:29 *152:20 0.000606528
23 *123:32 *152:20 2.81147e-06
*RES
1 *508:X *152:20 46.6761 
2 *152:20 *614:D 17.6164 
*END

*D_NET *153 0.0165795
*CONN
*I *626:D I *D sky130_fd_sc_hd__dfxtp_1
*I *510:Y O *D sky130_fd_sc_hd__a21oi_1
*CAP
1 *626:D 6.78102e-05
2 *510:Y 0.00335978
3 *153:22 0.00342759
4 *626:D *688:DE 2.13584e-05
5 *626:D *180:87 0.000128384
6 *153:22 *458:A1 7.15835e-05
7 *153:22 *458:S1 3.1143e-05
8 *153:22 *557:A1 3.80286e-05
9 *153:22 *570:DE 0.000447593
10 *153:22 *570:CLK 5.78333e-05
11 *153:22 *654:DE 1.42709e-05
12 *153:22 *155:198 0.00055465
13 *153:22 *157:16 1.80143e-06
14 *153:22 *166:18 0.00106299
15 *153:22 *166:28 0.000269755
16 *153:22 *179:26 3.29141e-05
17 *153:22 *180:111 0.000167464
18 *153:22 *279:38 1.2128e-05
19 *153:22 *280:16 0.000556531
20 *153:22 *313:52 6.32875e-06
21 *153:22 *343:18 0.000177048
22 *153:22 *346:32 0.00215933
23 *153:22 *346:109 7.4615e-06
24 *410:A2 *153:22 0
25 *505:A2 *153:22 0
26 *510:A2 *153:22 6.75138e-05
27 *514:A *153:22 8.93503e-05
28 *529:A *626:D 0.000120195
29 *530:B *153:22 0.00074064
30 *6:87 *153:22 3.71926e-05
31 *10:47 *153:22 0.0021517
32 *80:93 *153:22 2.18682e-05
33 *104:47 *153:22 6.6144e-05
34 *111:24 *153:22 0
35 *116:64 *153:22 6.50727e-05
36 *140:36 *153:22 0.00029554
37 *146:26 *153:22 0.000250479
*RES
1 *510:Y *153:22 48.1496 
2 *153:22 *626:D 19.7959 
*END

*D_NET *154 0.000558119
*CONN
*I *478:B1 I *D sky130_fd_sc_hd__o21ai_0
*I *477:Y O *D sky130_fd_sc_hd__a221oi_1
*CAP
1 *478:B1 0.000160218
2 *477:Y 0.000160218
3 *478:B1 *437:A1 0.000178666
4 *478:B1 *447:A1 1.07248e-05
5 *478:B1 *215:40 7.86825e-06
6 *478:B1 *350:297 0
7 *478:A2 *478:B1 1.45622e-05
8 *11:173 *478:B1 2.58616e-05
9 *49:12 *478:B1 0
*RES
1 *477:Y *478:B1 32.1299 
*END

*D_NET *155 0.042144
*CONN
*I *577:DE I *D sky130_fd_sc_hd__edfxtp_1
*I *674:DE I *D sky130_fd_sc_hd__edfxtp_1
*I *575:DE I *D sky130_fd_sc_hd__edfxtp_1
*I *574:DE I *D sky130_fd_sc_hd__edfxtp_1
*I *576:DE I *D sky130_fd_sc_hd__edfxtp_1
*I *580:DE I *D sky130_fd_sc_hd__edfxtp_1
*I *579:DE I *D sky130_fd_sc_hd__edfxtp_1
*I *578:DE I *D sky130_fd_sc_hd__edfxtp_1
*I *514:Y O *D sky130_fd_sc_hd__nor2_1
*CAP
1 *577:DE 4.68449e-05
2 *674:DE 0
3 *575:DE 2.30055e-05
4 *574:DE 2.30055e-05
5 *576:DE 0.000109053
6 *580:DE 0.000361512
7 *579:DE 0.000287471
8 *578:DE 0.000936224
9 *514:Y 0.000268058
10 *155:198 0.00150644
11 *155:157 0.0018996
12 *155:146 0.00178463
13 *155:127 0.0015507
14 *155:99 0.00106465
15 *155:93 0.00232409
16 *155:68 0.00394733
17 *155:44 0.00335118
18 *155:14 0.00244037
19 *155:10 0.000456593
20 *574:DE *323:32 2.90638e-06
21 *575:DE *575:CLK 2.90638e-06
22 *576:DE *576:CLK 2.12987e-05
23 *577:DE *355:66 4.0101e-05
24 *578:DE *655:DE 0.000102517
25 *578:DE *188:30 3.37996e-05
26 *578:DE *241:48 1.40158e-05
27 *578:DE *260:26 7.10162e-06
28 *578:DE *299:60 0.000336317
29 *578:DE *310:36 3.82123e-05
30 *579:DE *368:25 6.67658e-06
31 *580:DE *580:CLK 8.93134e-05
32 *580:DE *334:54 1.99092e-05
33 *155:10 *577:CLK 2.53145e-06
34 *155:10 *1193:A 0.000111722
35 *155:10 *190:13 0.000122378
36 *155:10 *355:57 4.08383e-05
37 *155:10 *355:66 1.41307e-05
38 *155:14 *158:107 9.92019e-05
39 *155:14 *167:28 0.000284393
40 *155:14 *181:63 7.03764e-05
41 *155:44 *420:A1 3.64497e-06
42 *155:44 *158:107 0.000455823
43 *155:44 *166:38 9.64718e-05
44 *155:44 *166:42 0.000105895
45 *155:44 *167:117 0.000230681
46 *155:44 *168:38 1.88179e-05
47 *155:44 *220:28 0.000480518
48 *155:44 *241:16 3.96379e-05
49 *155:44 *241:48 8.36586e-06
50 *155:44 *332:32 8.09106e-06
51 *155:44 *336:113 8.6588e-05
52 *155:44 *344:22 5.74683e-06
53 *155:44 *356:85 0.000237253
54 *155:44 *356:87 6.75453e-05
55 *155:68 *702:DE 2.86944e-05
56 *155:68 *702:CLK 5.86188e-05
57 *155:68 *158:53 6.11872e-05
58 *155:68 *162:79 3.02541e-05
59 *155:68 *163:58 0.000162688
60 *155:68 *168:63 8.55147e-05
61 *155:68 *210:16 4.99151e-05
62 *155:68 *210:20 0.000133012
63 *155:68 *268:52 1.85244e-05
64 *155:68 *330:12 2.90593e-05
65 *155:68 *359:54 8.69531e-06
66 *155:93 *627:CLK 6.46559e-05
67 *155:93 *657:DE 7.10162e-06
68 *155:93 *156:77 0.000233442
69 *155:93 *160:142 7.43817e-05
70 *155:93 *188:30 0.000165587
71 *155:93 *217:62 2.65632e-05
72 *155:93 *217:80 0
73 *155:93 *234:32 0.000299814
74 *155:93 *241:48 2.1203e-06
75 *155:93 *300:22 6.22259e-05
76 *155:93 *365:10 3.65671e-05
77 *155:99 *580:CLK 6.98337e-06
78 *155:99 *640:CLK 0.000218964
79 *155:99 *169:81 2.76104e-05
80 *155:127 *158:107 9.93089e-05
81 *155:127 *167:28 8.52398e-05
82 *155:146 *383:C1 0.000338104
83 *155:146 *543:A1 0.00136166
84 *155:146 *543:S 4.58745e-05
85 *155:146 *569:DE 0.00024863
86 *155:146 *158:107 0.000359097
87 *155:146 *164:30 0.000801256
88 *155:146 *167:28 4.8363e-06
89 *155:146 *214:18 3.21119e-05
90 *155:157 *651:DE 3.88358e-05
91 *155:157 *157:20 4.33072e-05
92 *155:157 *164:30 0.0001127
93 *155:157 *164:41 0.000144993
94 *155:157 *253:20 1.68157e-05
95 *155:157 *346:14 0.000153327
96 *155:198 *468:S0 3.21004e-06
97 *155:198 *570:DE 0.000989162
98 *155:198 *570:CLK 3.88358e-05
99 *155:198 *654:DE 2.7321e-05
100 *155:198 *1204:A 7.08723e-06
101 *155:198 *181:20 5.93062e-05
102 *155:198 *183:16 0.000123752
103 *155:198 *186:28 0.000137566
104 *155:198 *245:20 3.55607e-05
105 *155:198 *253:20 0.000101184
106 *155:198 *346:14 3.77568e-05
107 *155:198 *350:134 0.000116887
108 *155:198 *362:18 0
109 *155:198 *367:16 0.000138787
110 *428:A1 *155:146 0.000403912
111 *446:A2 *579:DE 5.04097e-05
112 *514:A *155:10 6.50586e-05
113 *577:D *577:DE 0.000134969
114 *577:D *155:10 0.000146486
115 *578:D *578:DE 0.00037319
116 *611:D *155:44 1.91246e-05
117 *645:D *155:198 0.000294321
118 *688:D *155:10 0.000186737
119 *690:D *578:DE 6.95285e-05
120 *695:D *155:68 1.24984e-05
121 *2:14 *155:44 0.00156097
122 *6:69 *155:146 0.000800791
123 *6:69 *155:157 0.000496802
124 *6:87 *155:157 0.000201965
125 *6:87 *155:198 0.00058893
126 *12:30 *579:DE 0.000292723
127 *13:35 *155:44 3.17436e-05
128 *41:16 *155:198 0
129 *80:137 *578:DE 0.000186229
130 *80:137 *155:93 3.36996e-05
131 *80:270 *579:DE 0.000421843
132 *81:12 *155:146 0.000121049
133 *81:124 *155:93 0
134 *81:249 *155:198 0.000152535
135 *82:176 *155:44 8.28712e-05
136 *82:212 *155:68 4.14773e-06
137 *87:30 *155:93 4.49107e-05
138 *103:30 *155:198 0.000139738
139 *111:24 *155:198 0
140 *118:18 *155:198 3.29675e-05
141 *118:20 *155:44 5.12259e-05
142 *130:52 *155:93 7.65911e-05
143 *146:26 *155:198 0.000422331
144 *148:28 *155:44 0.000807917
145 *153:22 *155:198 0.00055465
*RES
1 *514:Y *155:10 17.9299 
2 *155:10 *155:14 9.86164 
3 *155:14 *155:44 48.6374 
4 *155:44 *155:68 41.9046 
5 *155:68 *578:DE 39.63 
6 *155:68 *155:93 49.9063 
7 *155:93 *155:99 11.9075 
8 *155:99 *579:DE 27.8619 
9 *155:99 *580:DE 15.3317 
10 *155:14 *155:127 2.03962 
11 *155:127 *576:DE 15.8591 
12 *155:127 *155:146 35.8473 
13 *155:146 *574:DE 14.153 
14 *155:146 *155:157 13.4591 
15 *155:157 *575:DE 14.153 
16 *155:157 *155:198 46.2862 
17 *155:198 *674:DE 9.24915 
18 *155:10 *577:DE 11.2566 
*END

*D_NET *156 0.029715
*CONN
*I *677:DE I *D sky130_fd_sc_hd__edfxtp_1
*I *703:DE I *D sky130_fd_sc_hd__edfxtp_1
*I *702:DE I *D sky130_fd_sc_hd__edfxtp_1
*I *559:DE I *D sky130_fd_sc_hd__edfxtp_1
*I *699:DE I *D sky130_fd_sc_hd__edfxtp_1
*I *558:DE I *D sky130_fd_sc_hd__edfxtp_1
*I *701:DE I *D sky130_fd_sc_hd__edfxtp_1
*I *700:DE I *D sky130_fd_sc_hd__edfxtp_1
*I *516:Y O *D sky130_fd_sc_hd__nor2_1
*CAP
1 *677:DE 0.000639486
2 *703:DE 0
3 *702:DE 6.87667e-05
4 *559:DE 0.000813832
5 *699:DE 0.000256382
6 *558:DE 0
7 *701:DE 8.32571e-05
8 *700:DE 0.000302686
9 *516:Y 9.78997e-05
10 *156:101 0.00208777
11 *156:87 0.00133818
12 *156:81 0.000292068
13 *156:77 0.00158103
14 *156:58 0.00192879
15 *156:46 0.00333647
16 *156:14 0.000946782
17 *156:8 0.00296775
18 *559:DE *481:A2 1.5714e-05
19 *559:DE *587:DE 0.000487078
20 *559:DE *163:14 2.75175e-05
21 *559:DE *210:20 0
22 *559:DE *327:36 0
23 *677:DE *645:DE 0
24 *677:DE *158:39 7.5782e-06
25 *677:DE *166:127 0.000142078
26 *677:DE *222:38 0.00065669
27 *677:DE *253:58 4.69495e-06
28 *677:DE *300:22 2.82171e-06
29 *677:DE *367:12 0.000140087
30 *700:DE *1200:A 5.11321e-05
31 *701:DE *553:A 1.65704e-05
32 *701:DE *701:CLK 9.55693e-06
33 *156:14 *595:DE 7.14746e-05
34 *156:14 *361:10 2.60879e-06
35 *156:14 *361:12 4.75196e-05
36 *156:14 *361:14 6.23914e-05
37 *156:46 *676:DE 8.4247e-06
38 *156:46 *1204:A 0
39 *156:46 *170:202 6.22732e-06
40 *156:46 *183:16 0.00189892
41 *156:46 *253:58 3.03564e-05
42 *156:58 *558:CLK 6.12159e-05
43 *156:58 *158:39 1.27063e-05
44 *156:58 *166:127 6.20258e-05
45 *156:58 *211:24 5.70428e-05
46 *156:58 *300:22 5.39635e-06
47 *156:58 *327:58 0.00011632
48 *156:77 *437:A0 3.88213e-05
49 *156:77 *632:CLK 0.000107245
50 *156:77 *663:CLK 0
51 *156:77 *158:39 0
52 *156:77 *160:142 0.000176982
53 *156:77 *242:18 9.54639e-05
54 *156:77 *275:36 4.69495e-06
55 *156:77 *283:32 0.000112772
56 *156:77 *300:22 0.000210829
57 *156:77 *309:32 0
58 *156:77 *319:36 0.000494387
59 *156:77 *327:36 0.000111437
60 *156:77 *365:10 8.79014e-06
61 *156:77 *368:31 0.000157754
62 *156:77 *368:35 0.000255536
63 *156:81 *242:18 1.35698e-05
64 *156:87 *702:CLK 0.000183498
65 *156:87 *210:20 0
66 *156:87 *242:18 4.01016e-05
67 *156:87 *268:52 0.000285458
68 *156:87 *359:54 9.98153e-05
69 *156:101 *481:A3 1.3706e-05
70 *156:101 *585:CLK 0.000235123
71 *156:101 *596:DE 0.000214341
72 *156:101 *686:CLK 0.000172364
73 *156:101 *210:20 0.000163479
74 *156:101 *254:12 8.01689e-05
75 *156:101 *268:52 0.000489511
76 *156:101 *299:26 4.69495e-06
77 *156:101 *325:20 3.08021e-05
78 *156:101 *358:26 8.17641e-05
79 *156:101 *358:37 1.05272e-06
80 *406:C1 *700:DE 0
81 *430:A2 *156:14 4.09787e-05
82 *430:A2 *156:46 0.000145642
83 *516:A *156:8 1.03403e-05
84 *516:B *156:8 1.21461e-06
85 *516:B *156:46 3.52699e-05
86 *558:D *156:58 6.15039e-05
87 *558:D *156:77 3.75221e-05
88 *695:D *702:DE 5.32409e-05
89 *703:D *156:87 0.000158136
90 *31:46 *156:101 0.000271491
91 *35:28 *156:46 0.000953911
92 *38:16 *559:DE 0
93 *54:22 *156:46 8.96997e-05
94 *81:12 *700:DE 7.1092e-05
95 *81:101 *156:77 0
96 *81:124 *156:77 0
97 *81:124 *156:87 3.26735e-05
98 *81:249 *156:46 0.000398966
99 *82:10 *700:DE 0.000142378
100 *82:10 *156:14 0.000346049
101 *82:41 *156:14 1.66771e-05
102 *82:92 *700:DE 0.000219101
103 *82:212 *702:DE 0.000114775
104 *87:30 *156:77 0.000306181
105 *104:39 *700:DE 4.91705e-05
106 *104:39 *156:14 0.000586876
107 *104:39 *156:46 9.34796e-05
108 *114:55 *156:14 5.74949e-05
109 *114:55 *156:46 9.69243e-05
110 *114:68 *156:46 2.01653e-05
111 *115:33 *156:46 0.000289597
112 *119:18 *156:14 0.000122833
113 *155:68 *702:DE 2.86944e-05
114 *155:93 *156:77 0.000233442
*RES
1 *516:Y *156:8 15.0271 
2 *156:8 *156:14 19.5535 
3 *156:14 *700:DE 22.4932 
4 *156:14 *701:DE 15.5757 
5 *156:8 *156:46 13.9956 
6 *156:46 *156:58 14.9644 
7 *156:58 *558:DE 9.24915 
8 *156:58 *156:77 46.9354 
9 *156:77 *156:81 5.60318 
10 *156:81 *156:87 13.3224 
11 *156:87 *156:101 33.2419 
12 *156:101 *699:DE 14.2828 
13 *156:101 *559:DE 37.382 
14 *156:87 *702:DE 15.7566 
15 *156:81 *703:DE 9.24915 
16 *156:46 *677:DE 33.0952 
*END

*D_NET *157 0.0401919
*CONN
*I *605:DE I *D sky130_fd_sc_hd__edfxtp_1
*I *604:DE I *D sky130_fd_sc_hd__edfxtp_1
*I *610:DE I *D sky130_fd_sc_hd__edfxtp_1
*I *606:DE I *D sky130_fd_sc_hd__edfxtp_1
*I *668:DE I *D sky130_fd_sc_hd__edfxtp_1
*I *602:DE I *D sky130_fd_sc_hd__edfxtp_1
*I *670:DE I *D sky130_fd_sc_hd__edfxtp_1
*I *603:DE I *D sky130_fd_sc_hd__edfxtp_1
*I *518:Y O *D sky130_fd_sc_hd__nor2_1
*CAP
1 *605:DE 7.22483e-05
2 *604:DE 0.000402732
3 *610:DE 0
4 *606:DE 9.13876e-05
5 *668:DE 0.000328294
6 *602:DE 2.30055e-05
7 *670:DE 0.000733627
8 *603:DE 0
9 *518:Y 0.000367807
10 *157:150 0.000774721
11 *157:131 0.00367414
12 *157:58 0.00103344
13 *157:48 0.00146528
14 *157:34 0.00159285
15 *157:30 0.00202768
16 *157:20 0.00626521
17 *157:16 0.00144442
18 *604:DE *220:64 9.56015e-05
19 *604:DE *226:36 0.000234478
20 *604:DE *269:20 0.000516629
21 *604:DE *296:28 6.48546e-05
22 *668:DE *528:A1 1.82679e-05
23 *668:DE *355:20 9.27913e-05
24 *670:DE *452:A3 3.1601e-05
25 *670:DE *481:A2 0.000116777
26 *670:DE *691:DE 0.000337186
27 *670:DE *691:CLK 0.000146056
28 *670:DE *166:57 0.000325845
29 *670:DE *282:40 9.06585e-05
30 *157:16 *505:A1 3.45337e-05
31 *157:20 *588:CLK 3.72692e-05
32 *157:20 *651:DE 1.29445e-05
33 *157:20 *654:CLK 0.00018513
34 *157:20 *164:30 0.000123094
35 *157:20 *164:41 5.17046e-05
36 *157:20 *168:10 9.76189e-05
37 *157:20 *168:24 5.38612e-06
38 *157:20 *363:32 0.000140457
39 *157:30 *553:A 0.000681599
40 *157:30 *612:D 0.000539092
41 *157:30 *614:CLK 6.87106e-05
42 *157:30 *626:CLK 0
43 *157:30 *278:24 2.95155e-05
44 *157:30 *328:32 0
45 *157:34 *465:A3 0
46 *157:48 *394:D1 1.9101e-05
47 *157:48 *528:A1 1.35239e-05
48 *157:48 *160:16 0.000447719
49 *157:48 *162:12 5.49951e-06
50 *157:48 *164:20 3.21591e-05
51 *157:48 *167:14 5.25084e-05
52 *157:58 *382:B1 9.12416e-06
53 *157:58 *164:20 0.000178519
54 *157:58 *175:16 7.48876e-06
55 *157:131 *437:A0 0.000652929
56 *157:131 *553:A 0.000249431
57 *157:131 *609:D 2.40736e-05
58 *157:131 *632:CLK 0.000231264
59 *157:131 *160:120 3.42415e-05
60 *157:131 *167:167 2.77364e-06
61 *157:131 *212:46 0.000939717
62 *157:131 *229:32 2.49093e-05
63 *157:131 *258:24 0.000231479
64 *157:131 *263:34 3.91825e-05
65 *157:131 *266:28 7.92757e-06
66 *157:131 *296:28 0.000231479
67 *157:131 *297:24 4.29675e-06
68 *157:131 *321:46 0.000129002
69 *157:131 *323:32 0.00152035
70 *157:131 *340:50 0.000102171
71 *157:131 *347:51 0.000808036
72 *157:131 *347:134 0.0011923
73 *157:131 *366:43 4.62299e-05
74 *157:131 *366:51 0.000107496
75 *157:150 *605:CLK 0.000249989
76 *157:150 *269:20 0.000142396
77 *157:150 *366:26 6.85329e-05
78 *157:150 *366:43 1.33562e-05
79 *382:A1 *157:58 1.26179e-05
80 *501:C *157:20 0.000197265
81 *505:A2 *157:20 0.000137388
82 *518:A *157:16 5.04829e-06
83 *518:B *157:16 6.08467e-05
84 *519:SLEEP *157:48 0.000100578
85 *523:A *157:48 1.68874e-05
86 *593:D *604:DE 7.13655e-06
87 *605:D *605:DE 0.000115609
88 *605:D *157:131 7.09666e-06
89 *605:D *157:150 0.000207883
90 *606:D *606:DE 8.06219e-05
91 *689:D *157:34 0.000211436
92 *689:D *157:48 0.000123582
93 *3:24 *602:DE 2.90638e-06
94 *4:39 *670:DE 9.88016e-06
95 *4:39 *157:58 5.90417e-05
96 *4:47 *157:48 3.77568e-05
97 *4:47 *157:58 0.000153658
98 *6:8 *157:58 0.000111708
99 *6:87 *157:20 0.000121697
100 *10:16 *157:48 0
101 *21:20 *157:131 0.000217341
102 *31:58 *605:DE 2.86944e-05
103 *31:58 *157:150 0.000115423
104 *60:42 *157:131 0.000235723
105 *80:39 *157:20 0.000227783
106 *80:58 *157:20 0.00066508
107 *81:27 *157:30 1.86084e-05
108 *81:27 *157:34 7.09666e-06
109 *88:32 *157:131 0.00062646
110 *104:47 *157:16 5.25142e-05
111 *108:26 *157:58 4.62112e-05
112 *113:54 *157:16 0.000202166
113 *115:35 *157:30 0.0018977
114 *116:50 *157:16 0.000160617
115 *117:12 *157:48 0.000737223
116 *117:37 *157:48 0
117 *119:24 *157:30 0
118 *119:24 *157:34 0
119 *119:24 *157:48 0
120 *130:52 *157:30 4.15739e-05
121 *130:52 *157:131 0.000356784
122 *140:36 *157:20 0
123 *147:18 *157:20 2.31063e-05
124 *150:14 *157:20 0.00040182
125 *151:14 *157:20 0.000110389
126 *153:22 *157:16 1.80143e-06
127 *155:157 *157:20 4.33072e-05
*RES
1 *518:Y *157:16 25.4852 
2 *157:16 *157:20 39.2515 
3 *157:20 *157:30 47.4178 
4 *157:30 *157:34 8.40826 
5 *157:34 *157:48 16.6127 
6 *157:48 *157:58 13.7969 
7 *157:58 *603:DE 9.24915 
8 *157:58 *670:DE 39.147 
9 *157:48 *602:DE 14.153 
10 *157:34 *668:DE 20.3984 
11 *157:30 *606:DE 11.341 
12 *157:20 *157:131 34.5749 
13 *157:131 *610:DE 9.24915 
14 *157:131 *157:150 18.3894 
15 *157:150 *604:DE 30.7379 
16 *157:150 *605:DE 11.2566 
*END

*D_NET *158 0.0383917
*CONN
*I *567:DE I *D sky130_fd_sc_hd__edfxtp_1
*I *675:DE I *D sky130_fd_sc_hd__edfxtp_1
*I *573:DE I *D sky130_fd_sc_hd__edfxtp_1
*I *569:DE I *D sky130_fd_sc_hd__edfxtp_1
*I *568:DE I *D sky130_fd_sc_hd__edfxtp_1
*I *572:DE I *D sky130_fd_sc_hd__edfxtp_1
*I *571:DE I *D sky130_fd_sc_hd__edfxtp_1
*I *570:DE I *D sky130_fd_sc_hd__edfxtp_1
*I *520:Y O *D sky130_fd_sc_hd__nor2_1
*CAP
1 *567:DE 0.000205623
2 *675:DE 2.30055e-05
3 *573:DE 0.000481431
4 *569:DE 0.000335407
5 *568:DE 0.000101086
6 *572:DE 0.000216929
7 *571:DE 0.000117387
8 *570:DE 0.000880903
9 *520:Y 0.000546574
10 *158:135 0.000528084
11 *158:107 0.00173553
12 *158:101 0.00235554
13 *158:69 0.00167786
14 *158:53 0.00336474
15 *158:39 0.00251744
16 *158:37 0.00181368
17 *158:10 0.00191769
18 *567:DE *437:A0 2.51612e-05
19 *567:DE *323:32 2.47629e-05
20 *568:DE *383:C1 5.60534e-06
21 *568:DE *168:101 1.11917e-05
22 *570:DE *570:CLK 0.000192537
23 *570:DE *645:DE 9.0045e-05
24 *570:DE *170:41 7.13655e-06
25 *570:DE *186:28 7.99221e-05
26 *570:DE *218:32 0.000716803
27 *570:DE *253:58 6.03529e-05
28 *570:DE *279:38 6.7288e-06
29 *570:DE *362:18 2.01653e-05
30 *571:DE *457:A1 0.000142229
31 *572:DE *457:A1 1.87952e-05
32 *572:DE *254:22 0.000115831
33 *573:DE *691:DE 5.60705e-05
34 *573:DE *1195:A 3.39728e-05
35 *573:DE *160:33 0.000138764
36 *573:DE *160:153 3.21471e-05
37 *573:DE *160:172 0.00049375
38 *573:DE *161:16 0.000694444
39 *573:DE *161:74 0.000389012
40 *573:DE *167:86 0.000132688
41 *573:DE *214:18 3.07835e-05
42 *573:DE *227:18 0
43 *675:DE *675:CLK 2.90638e-06
44 *158:10 *600:DE 0
45 *158:10 *645:DE 0.000100258
46 *158:10 *170:41 0.000203625
47 *158:10 *350:157 6.34419e-05
48 *158:37 *468:A3 0.000219532
49 *158:37 *468:S0 8.52103e-06
50 *158:39 *476:A0 9.73171e-05
51 *158:39 *476:A1 0
52 *158:39 *539:A1 0.000459049
53 *158:39 *581:CLK 0.000174658
54 *158:39 *632:CLK 4.61799e-05
55 *158:39 *644:CLK 2.31895e-05
56 *158:39 *663:CLK 0.000201476
57 *158:39 *160:142 2.26111e-05
58 *158:39 *169:71 7.48876e-06
59 *158:39 *212:28 0.000108405
60 *158:39 *222:38 0.000306805
61 *158:39 *238:22 0
62 *158:39 *239:16 0.000605589
63 *158:39 *265:30 3.65673e-05
64 *158:39 *268:30 0
65 *158:39 *293:56 5.79807e-05
66 *158:39 *300:22 1.66771e-05
67 *158:39 *309:32 9.42362e-06
68 *158:39 *327:58 0.00011551
69 *158:39 *340:50 1.5714e-05
70 *158:39 *365:139 3.5534e-06
71 *158:53 *631:CLK 0.000146554
72 *158:53 *162:50 5.19948e-05
73 *158:53 *162:79 0.000285083
74 *158:53 *163:58 0
75 *158:53 *168:63 2.33103e-06
76 *158:53 *235:24 0.000450992
77 *158:53 *268:30 6.55131e-05
78 *158:53 *268:52 0.000139882
79 *158:53 *281:32 3.83145e-05
80 *158:53 *293:56 0.000109116
81 *158:53 *330:48 5.5041e-05
82 *158:53 *359:65 5.19712e-05
83 *158:53 *365:139 0.0001149
84 *158:69 *465:A3 0.00033198
85 *158:69 *160:81 5.04313e-05
86 *158:69 *162:50 9.17705e-05
87 *158:69 *226:36 1.50804e-05
88 *158:69 *241:48 0.000185885
89 *158:69 *251:24 0.000129091
90 *158:69 *281:32 9.45853e-05
91 *158:69 *302:24 4.25507e-05
92 *158:69 *310:36 0.000303958
93 *158:69 *359:12 5.64215e-05
94 *158:101 *222:24 3.76481e-05
95 *158:101 *241:48 0.00128075
96 *158:101 *281:32 0.000896516
97 *158:101 *346:62 0.000131177
98 *158:107 *181:63 4.51176e-05
99 *158:107 *344:22 0.00127537
100 *158:107 *346:62 0.000113987
101 *158:135 *161:74 6.04273e-05
102 *158:135 *214:18 2.86008e-05
103 *395:B *158:10 8.29012e-05
104 *425:A2 *158:10 1.3044e-05
105 *520:B *158:10 0
106 *571:D *158:69 0.00022857
107 *645:D *570:DE 8.22935e-05
108 *677:DE *158:39 7.5782e-06
109 *697:D *572:DE 0.000217686
110 *697:D *158:69 3.97006e-05
111 *2:14 *158:101 9.73142e-05
112 *2:14 *158:107 3.79121e-05
113 *23:26 *571:DE 4.73515e-05
114 *23:26 *572:DE 5.95368e-05
115 *31:46 *158:69 0.00118581
116 *57:26 *158:69 5.84963e-05
117 *80:93 *158:107 8.07026e-06
118 *80:110 *158:69 0.000201048
119 *80:160 *572:DE 4.26318e-05
120 *81:12 *569:DE 4.62945e-05
121 *81:177 *158:69 0.000288928
122 *82:66 *570:DE 6.89724e-06
123 *82:92 *569:DE 0.000149392
124 *82:98 *569:DE 0.000207282
125 *82:98 *158:107 0.00022234
126 *82:212 *158:53 2.75678e-05
127 *82:268 *158:53 0.000225852
128 *152:20 *158:107 0.000107155
129 *153:22 *570:DE 0.000447593
130 *155:14 *158:107 9.92019e-05
131 *155:44 *158:107 0.000455823
132 *155:68 *158:53 6.11872e-05
133 *155:127 *158:107 9.93089e-05
134 *155:146 *569:DE 0.00024863
135 *155:146 *158:107 0.000359097
136 *155:198 *570:DE 0.000989162
137 *156:58 *158:39 1.27063e-05
138 *156:77 *158:39 0
*RES
1 *520:Y *158:10 28.7715 
2 *158:10 *570:DE 30.1311 
3 *158:10 *158:37 17.1114 
4 *158:37 *158:39 39.2047 
5 *158:39 *158:53 38.0316 
6 *158:53 *158:69 28.2211 
7 *158:69 *571:DE 17.0232 
8 *158:69 *572:DE 20.6644 
9 *158:53 *158:101 6.3253 
10 *158:101 *158:107 16.2329 
11 *158:107 *568:DE 15.6782 
12 *158:107 *569:DE 23.6145 
13 *158:101 *158:135 4.5779 
14 *158:135 *573:DE 34.2561 
15 *158:135 *675:DE 14.153 
16 *158:39 *567:DE 18.1016 
*END

*D_NET *160 0.0354492
*CONN
*I *679:DE I *D sky130_fd_sc_hd__edfxtp_1
*I *688:DE I *D sky130_fd_sc_hd__edfxtp_1
*I *689:DE I *D sky130_fd_sc_hd__edfxtp_1
*I *685:DE I *D sky130_fd_sc_hd__edfxtp_1
*I *687:DE I *D sky130_fd_sc_hd__edfxtp_1
*I *686:DE I *D sky130_fd_sc_hd__edfxtp_1
*I *690:DE I *D sky130_fd_sc_hd__edfxtp_1
*I *691:DE I *D sky130_fd_sc_hd__edfxtp_1
*I *523:Y O *D sky130_fd_sc_hd__nor2_1
*CAP
1 *679:DE 0
2 *688:DE 0.00106262
3 *689:DE 0.000296897
4 *685:DE 0.000134041
5 *687:DE 0.000134694
6 *686:DE 0.000492343
7 *690:DE 0.000323774
8 *691:DE 0.000530021
9 *523:Y 0.00113271
10 *160:172 0.00133432
11 *160:153 0.000586874
12 *160:142 0.00144627
13 *160:120 0.0025614
14 *160:81 0.00223179
15 *160:56 0.00201759
16 *160:37 0.00242534
17 *160:33 0.00148897
18 *160:16 0.00170918
19 *685:DE *283:32 1.03403e-05
20 *686:DE *299:90 6.88361e-05
21 *686:DE *308:18 0.00017995
22 *687:DE *687:CLK 1.41976e-05
23 *687:DE *330:48 3.33876e-05
24 *688:DE *626:CLK 4.87301e-05
25 *688:DE *306:28 0.000478578
26 *688:DE *343:8 6.36477e-05
27 *690:DE *481:A3 0.000207933
28 *691:DE *691:CLK 3.37073e-06
29 *691:DE *161:16 9.77525e-05
30 *691:DE *166:57 0.000393511
31 *160:16 *394:B1 0.000219344
32 *160:16 *394:D1 6.29895e-05
33 *160:16 *162:12 6.66127e-05
34 *160:16 *335:19 0.000168313
35 *160:33 *166:57 0.000144273
36 *160:37 *438:A1 0.000107413
37 *160:37 *162:12 0.00156904
38 *160:37 *162:35 0.000424997
39 *160:37 *182:47 1.43499e-05
40 *160:37 *236:32 0.000530652
41 *160:37 *261:34 0.000370575
42 *160:37 *299:26 3.65281e-05
43 *160:37 *358:16 8.4649e-05
44 *160:56 *457:A1 3.08056e-05
45 *160:56 *236:32 0.000373465
46 *160:56 *251:24 2.21536e-05
47 *160:56 *279:62 0.000121509
48 *160:56 *299:90 4.12559e-05
49 *160:56 *358:16 0.00105385
50 *160:81 *457:A1 6.88944e-05
51 *160:81 *241:48 0.000349438
52 *160:81 *251:24 0.000107448
53 *160:81 *299:90 7.66983e-06
54 *160:81 *302:24 1.32841e-05
55 *160:81 *310:36 2.96378e-05
56 *160:81 *322:48 0.000276978
57 *160:81 *359:12 4.41737e-05
58 *160:81 *359:27 4.0605e-06
59 *160:81 *359:136 6.43431e-05
60 *160:120 *684:CLK 9.26659e-05
61 *160:120 *161:162 0
62 *160:120 *217:44 0.000152091
63 *160:120 *221:26 0.000160213
64 *160:120 *242:18 2.16003e-05
65 *160:120 *267:28 0.000594026
66 *160:120 *270:24 0.000602918
67 *160:120 *287:24 0.000183319
68 *160:120 *313:52 0.000121468
69 *160:120 *321:46 0.000118237
70 *160:120 *322:48 8.3171e-05
71 *160:120 *359:136 4.68256e-05
72 *160:142 *632:CLK 0.000107496
73 *160:142 *663:CLK 6.36477e-05
74 *160:142 *212:46 0.000208325
75 *160:142 *234:32 3.24705e-06
76 *160:142 *268:30 2.16608e-05
77 *160:142 *275:36 2.18468e-05
78 *160:142 *283:32 0.000120237
79 *160:142 *293:56 5.3662e-05
80 *160:142 *309:32 1.66626e-05
81 *160:142 *321:46 6.06525e-06
82 *160:142 *327:36 4.78069e-06
83 *160:142 *327:58 6.98337e-06
84 *160:153 *166:57 3.88213e-05
85 *160:172 *166:57 0.00037017
86 *160:172 *227:18 0
87 *393:A2 *160:37 9.63687e-06
88 *485:B1_N *160:56 5.4655e-05
89 *485:B1_N *160:172 0
90 *519:SLEEP *160:16 0.000773248
91 *519:SLEEP *160:37 5.84377e-06
92 *523:B *160:16 4.17531e-06
93 *527:A *691:DE 8.78565e-06
94 *527:B *691:DE 0
95 *571:D *686:DE 0.000137679
96 *571:D *160:81 0
97 *573:DE *691:DE 5.60705e-05
98 *573:DE *160:33 0.000138764
99 *573:DE *160:153 3.21471e-05
100 *573:DE *160:172 0.00049375
101 *626:D *688:DE 2.13584e-05
102 *670:DE *691:DE 0.000337186
103 *690:D *690:DE 0.000554138
104 *697:D *160:81 0.000106427
105 *6:10 *691:DE 0
106 *6:16 *691:DE 0
107 *10:16 *160:16 5.05963e-05
108 *12:30 *160:81 4.33185e-05
109 *12:30 *160:120 0.000399573
110 *21:20 *160:120 1.70968e-05
111 *60:42 *160:120 4.16588e-05
112 *80:150 *160:81 4.2372e-05
113 *80:215 *160:120 0.000176478
114 *117:37 *160:16 0
115 *155:93 *160:142 7.43817e-05
116 *156:77 *160:142 0.000176982
117 *157:48 *160:16 0.000447719
118 *157:131 *160:120 3.42415e-05
119 *158:39 *160:142 2.26111e-05
120 *158:69 *160:81 5.04313e-05
*RES
1 *523:Y *160:16 29.1186 
2 *160:16 *691:DE 29.554 
3 *160:16 *160:33 2.6625 
4 *160:33 *160:37 7.0902 
5 *160:37 *690:DE 27.8665 
6 *160:37 *160:56 8.23385 
7 *160:56 *686:DE 26.1373 
8 *160:56 *160:81 30.8696 
9 *160:81 *687:DE 16.8899 
10 *160:81 *160:120 43.4747 
11 *160:120 *160:142 47.6292 
12 *160:142 *685:DE 16.5161 
13 *160:33 *160:153 0.793864 
14 *160:153 *689:DE 19.892 
15 *160:153 *160:172 14.765 
16 *160:172 *688:DE 33.0489 
17 *160:172 *679:DE 9.24915 
*END

*D_NET *161 0.027132
*CONN
*I *663:DE I *D sky130_fd_sc_hd__edfxtp_1
*I *667:DE I *D sky130_fd_sc_hd__edfxtp_1
*I *684:DE I *D sky130_fd_sc_hd__edfxtp_1
*I *666:DE I *D sky130_fd_sc_hd__edfxtp_1
*I *665:DE I *D sky130_fd_sc_hd__edfxtp_1
*I *662:DE I *D sky130_fd_sc_hd__edfxtp_1
*I *664:DE I *D sky130_fd_sc_hd__edfxtp_1
*I *680:DE I *D sky130_fd_sc_hd__edfxtp_1
*I *525:Y O *D sky130_fd_sc_hd__nor2_1
*CAP
1 *663:DE 0.000655767
2 *667:DE 5.79101e-05
3 *684:DE 0.000407568
4 *666:DE 0.000109485
5 *665:DE 1.66945e-05
6 *662:DE 0.000185616
7 *664:DE 0.000383785
8 *680:DE 4.08666e-05
9 *525:Y 0.00103832
10 *161:162 0.00163503
11 *161:125 0.00203516
12 *161:108 0.00181399
13 *161:85 0.00108461
14 *161:74 0.000868089
15 *161:20 0.00113427
16 *161:16 0.00236076
17 *662:DE *168:101 0.000100247
18 *662:DE *220:28 9.27913e-05
19 *663:DE *607:D 0.000266548
20 *663:DE *667:CLK 4.53469e-05
21 *663:DE *169:81 0.000185476
22 *663:DE *300:22 0.000127894
23 *663:DE *366:157 0.000212198
24 *664:DE *414:S 1.84344e-05
25 *664:DE *649:DE 0.000190358
26 *664:DE *664:CLK 2.60249e-05
27 *664:DE *170:133 2.88866e-05
28 *664:DE *279:38 7.29162e-06
29 *664:DE *336:18 7.40468e-05
30 *664:DE *357:80 5.8518e-05
31 *664:DE *357:95 0
32 *666:DE *170:107 1.5714e-05
33 *667:DE *607:D 3.01606e-05
34 *680:DE *660:CLK 0
35 *680:DE *357:80 6.76194e-06
36 *680:DE *357:95 3.50304e-05
37 *684:DE *684:CLK 4.16632e-05
38 *684:DE *168:84 0.000288598
39 *684:DE *209:32 0.000110081
40 *684:DE *261:34 8.06767e-05
41 *684:DE *321:22 5.04829e-06
42 *161:16 *382:B1 7.72781e-05
43 *161:16 *394:D1 0
44 *161:16 *180:60 3.12291e-05
45 *161:16 *257:38 0.000913563
46 *161:16 *282:40 3.27616e-06
47 *161:16 *343:138 0.000247576
48 *161:20 *649:DE 0.00124831
49 *161:74 *168:28 6.4135e-05
50 *161:74 *168:38 8.77364e-05
51 *161:74 *214:18 9.48696e-05
52 *161:74 *337:26 0.000146932
53 *161:85 *168:28 0.000139379
54 *161:85 *337:26 5.53416e-05
55 *161:108 *441:A1 0.000129091
56 *161:108 *543:S 1.88499e-05
57 *161:108 *1197:A 3.19246e-05
58 *161:108 *168:28 8.802e-05
59 *161:108 *182:64 1.5714e-05
60 *161:108 *337:26 3.35505e-05
61 *161:108 *340:50 1.55159e-05
62 *161:108 *351:127 1.85244e-05
63 *161:125 *401:B2 5.29521e-05
64 *161:125 *441:A1 0.0011662
65 *161:162 *560:CLK 4.28856e-07
66 *161:162 *261:34 0.000220124
67 *161:162 *290:22 3.33544e-05
68 *161:162 *313:52 6.06525e-06
69 *428:A1 *161:108 5.03234e-05
70 *485:B1_N *664:DE 3.1158e-05
71 *485:B1_N *161:20 0.000276446
72 *523:A *161:16 4.88477e-06
73 *527:A *161:16 1.17431e-05
74 *527:B *161:16 0
75 *573:DE *161:16 0.000694444
76 *573:DE *161:74 0.000389012
77 *632:D *663:DE 2.65301e-05
78 *667:D *667:DE 0.000134686
79 *667:D *161:162 9.49135e-05
80 *691:DE *161:16 9.77525e-05
81 *6:69 *161:16 7.61596e-06
82 *21:20 *684:DE 7.71503e-05
83 *21:20 *161:162 0.000223863
84 *60:42 *663:DE 0.00018556
85 *68:38 *664:DE 2.82171e-06
86 *80:215 *161:162 6.68858e-05
87 *80:234 *663:DE 3.27763e-05
88 *80:234 *161:162 3.9324e-05
89 *81:95 *666:DE 3.39728e-05
90 *82:174 *665:DE 3.43037e-05
91 *82:174 *666:DE 6.10587e-05
92 *82:174 *161:108 0.000100999
93 *87:30 *161:125 0.000440712
94 *108:26 *161:16 0.000208977
95 *117:12 *161:16 1.33653e-05
96 *118:20 *161:16 4.05536e-05
97 *118:20 *161:74 0.000264301
98 *119:32 *161:16 8.20569e-05
99 *120:39 *161:16 3.17436e-05
100 *125:28 *161:108 0.000282048
101 *125:28 *161:125 0.00174884
102 *140:36 *161:16 0.000465077
103 *158:135 *161:74 6.04273e-05
104 *160:120 *161:162 0
*RES
1 *525:Y *161:16 41.3788 
2 *161:16 *161:20 5.25444 
3 *161:20 *680:DE 18.7057 
4 *161:20 *664:DE 25.1794 
5 *161:16 *161:74 19.1382 
6 *161:74 *662:DE 18.7346 
7 *161:74 *161:85 2.6625 
8 *161:85 *665:DE 14.153 
9 *161:85 *161:108 20.9369 
10 *161:108 *666:DE 19.5614 
11 *161:108 *161:125 6.01934 
12 *161:125 *684:DE 26.6464 
13 *161:125 *161:162 27.7953 
14 *161:162 *667:DE 15.7566 
15 *161:162 *663:DE 32.2048 
*END

*D_NET *162 0.0299666
*CONN
*I *584:DE I *D sky130_fd_sc_hd__edfxtp_1
*I *583:DE I *D sky130_fd_sc_hd__edfxtp_1
*I *581:DE I *D sky130_fd_sc_hd__edfxtp_1
*I *673:DE I *D sky130_fd_sc_hd__edfxtp_1
*I *582:DE I *D sky130_fd_sc_hd__edfxtp_1
*I *586:DE I *D sky130_fd_sc_hd__edfxtp_1
*I *585:DE I *D sky130_fd_sc_hd__edfxtp_1
*I *587:DE I *D sky130_fd_sc_hd__edfxtp_1
*I *526:Y O *D sky130_fd_sc_hd__nor2_1
*CAP
1 *584:DE 1.28387e-05
2 *583:DE 0.000242671
3 *581:DE 0.000659033
4 *673:DE 0.000186595
5 *582:DE 0.000856937
6 *586:DE 0.000716132
7 *585:DE 0.000243469
8 *587:DE 0.000461834
9 *526:Y 0.00232083
10 *162:107 0.001692
11 *162:93 0.00185334
12 *162:87 0.00154521
13 *162:79 0.00121954
14 *162:50 0.00144555
15 *162:35 0.00110021
16 *162:12 0.00335999
17 *581:DE *539:A1 3.75221e-05
18 *581:DE *581:CLK 1.98189e-05
19 *581:DE *327:58 2.20583e-05
20 *581:DE *331:30 2.85048e-06
21 *582:DE *476:A1 0.000189525
22 *582:DE *170:202 0.000160273
23 *582:DE *238:22 0.000200456
24 *582:DE *327:58 6.28634e-05
25 *582:DE *328:52 0.000110306
26 *582:DE *334:24 2.95031e-05
27 *582:DE *368:107 1.65872e-05
28 *583:DE *365:69 9.27913e-05
29 *584:DE *359:69 3.70952e-05
30 *585:DE *302:24 2.75854e-05
31 *586:DE *397:A0 0.000494204
32 *586:DE *222:24 0.000118513
33 *586:DE *241:48 0.00042501
34 *586:DE *287:24 0.000102301
35 *587:DE *449:A2 8.53392e-05
36 *587:DE *596:DE 0
37 *587:DE *163:14 0.000566611
38 *673:DE *432:A1 0.000102051
39 *673:DE *645:DE 6.99044e-06
40 *673:DE *166:127 0
41 *162:12 *394:B1 1.2856e-05
42 *162:12 *465:A3 2.02792e-05
43 *162:12 *170:133 0.000136416
44 *162:12 *257:38 1.79239e-05
45 *162:12 *306:28 0.000342626
46 *162:12 *350:545 0.000498661
47 *162:12 *355:14 2.27135e-05
48 *162:35 *655:DE 9.23904e-05
49 *162:35 *210:20 9.34958e-05
50 *162:35 *279:62 0.000159769
51 *162:35 *325:20 0.000170504
52 *162:35 *336:10 4.84024e-05
53 *162:35 *336:18 4.32735e-05
54 *162:50 *210:20 0.000153223
55 *162:50 *281:32 9.46355e-05
56 *162:50 *336:10 2.46244e-05
57 *162:79 *168:63 0.000123746
58 *162:79 *210:20 5.14628e-05
59 *162:79 *268:52 7.10735e-06
60 *162:79 *330:12 1.65117e-05
61 *162:87 *590:DE 0.000149575
62 *162:87 *661:CLK 3.64673e-05
63 *162:87 *163:58 0.000269769
64 *162:87 *168:63 0
65 *162:87 *212:46 1.66626e-05
66 *162:87 *229:32 0.000471606
67 *162:87 *297:24 1.86001e-05
68 *162:87 *365:63 0
69 *162:93 *169:46 0.000146363
70 *162:93 *212:46 0.000286814
71 *162:93 *293:56 0.000251307
72 *162:93 *297:24 3.82054e-05
73 *162:93 *327:58 0
74 *162:93 *331:30 3.24705e-06
75 *162:107 *676:DE 0.000224696
76 *162:107 *169:46 7.48173e-05
77 *162:107 *170:202 6.34564e-05
78 *162:107 *211:24 0
79 *162:107 *293:56 8.5841e-05
80 *162:107 *327:58 0
81 *162:107 *328:52 5.74949e-05
82 *162:107 *331:30 7.51028e-05
83 *393:A2 *162:12 7.00698e-05
84 *393:A2 *162:35 3.5211e-05
85 *436:B1 *673:DE 2.35126e-05
86 *559:DE *587:DE 0.000487078
87 *638:D *162:107 0.000171925
88 *645:D *673:DE 0
89 *10:16 *162:12 0.000516045
90 *21:20 *586:DE 0.000102301
91 *22:32 *162:12 2.07556e-06
92 *31:46 *585:DE 0.000258847
93 *53:22 *673:DE 2.01828e-05
94 *72:30 *586:DE 0.000195945
95 *80:150 *586:DE 8.06219e-05
96 *81:124 *585:DE 3.9309e-05
97 *81:131 *585:DE 3.90433e-05
98 *88:32 *583:DE 3.82228e-05
99 *88:32 *162:87 7.26785e-05
100 *115:43 *162:12 2.02035e-05
101 *120:27 *162:12 0
102 *120:71 *162:12 0
103 *149:22 *162:12 4.09765e-05
104 *155:68 *162:79 3.02541e-05
105 *157:48 *162:12 5.49951e-06
106 *158:53 *162:50 5.19948e-05
107 *158:53 *162:79 0.000285083
108 *158:69 *162:50 9.17705e-05
109 *160:16 *162:12 6.66127e-05
110 *160:37 *162:12 0.00156904
111 *160:37 *162:35 0.000424997
*RES
1 *526:Y *162:12 22.9007 
2 *162:12 *587:DE 32.2316 
3 *162:12 *162:35 13.96 
4 *162:35 *585:DE 20.2416 
5 *162:35 *162:50 7.85315 
6 *162:50 *586:DE 25.2009 
7 *162:50 *162:79 12.2744 
8 *162:79 *162:87 19.2726 
9 *162:87 *162:93 18.4066 
10 *162:93 *162:107 22.5757 
11 *162:107 *582:DE 39.3711 
12 *162:107 *673:DE 18.8094 
13 *162:93 *581:DE 19.3164 
14 *162:87 *583:DE 18.9127 
15 *162:79 *584:DE 14.153 
*END

*D_NET *163 0.0289993
*CONN
*I *681:DE I *D sky130_fd_sc_hd__edfxtp_1
*I *657:DE I *D sky130_fd_sc_hd__edfxtp_1
*I *661:DE I *D sky130_fd_sc_hd__edfxtp_1
*I *659:DE I *D sky130_fd_sc_hd__edfxtp_1
*I *656:DE I *D sky130_fd_sc_hd__edfxtp_1
*I *658:DE I *D sky130_fd_sc_hd__edfxtp_1
*I *660:DE I *D sky130_fd_sc_hd__edfxtp_1
*I *655:DE I *D sky130_fd_sc_hd__edfxtp_1
*I *527:Y O *D sky130_fd_sc_hd__nor2_1
*CAP
1 *681:DE 0.000442676
2 *657:DE 0.000984331
3 *661:DE 0.00021633
4 *659:DE 0.000346065
5 *656:DE 0.000779828
6 *658:DE 0.000712542
7 *660:DE 9.14415e-05
8 *655:DE 0.000758026
9 *527:Y 0.00139534
10 *163:136 0.00190968
11 *163:93 0.00132339
12 *163:87 0.000413829
13 *163:85 0.000785694
14 *163:58 0.00175179
15 *163:43 0.00109694
16 *163:14 0.00242265
17 *655:DE *465:A3 0.000778906
18 *655:DE *585:CLK 0.000226438
19 *655:DE *188:30 3.64208e-05
20 *655:DE *210:20 8.77951e-05
21 *656:DE *461:S0 9.40648e-05
22 *656:DE *656:CLK 3.74298e-05
23 *656:DE *292:24 6.48105e-05
24 *656:DE *337:26 4.87439e-05
25 *657:DE *457:A2 3.8289e-05
26 *657:DE *643:DE 8.04172e-05
27 *657:DE *169:71 0.000604361
28 *657:DE *211:24 0.00100587
29 *657:DE *217:80 0.0001252
30 *657:DE *228:40 3.58398e-05
31 *657:DE *293:56 0.000343365
32 *657:DE *300:22 0
33 *658:DE *347:134 0.00012322
34 *658:DE *365:27 4.00149e-05
35 *658:DE *365:35 4.82334e-05
36 *659:DE *659:CLK 1.02963e-05
37 *659:DE *244:24 0.000175659
38 *659:DE *317:22 1.53006e-05
39 *660:DE *336:10 2.29779e-05
40 *661:DE *661:CLK 2.16355e-05
41 *681:DE *404:A0 0.000119957
42 *681:DE *594:DE 0.000111967
43 *681:DE *166:127 0.000388067
44 *681:DE *367:22 0.000131356
45 *681:DE *367:26 0.000118496
46 *681:DE *367:34 0.000186252
47 *163:14 *449:A2 6.66012e-05
48 *163:14 *587:CLK 6.22868e-05
49 *163:14 *1192:A 1.65872e-05
50 *163:14 *170:133 0.000293288
51 *163:14 *279:62 0
52 *163:14 *299:26 0
53 *163:14 *350:545 0.000217383
54 *163:14 *354:53 1.37669e-05
55 *163:14 *357:35 0.000156946
56 *163:43 *170:133 0.000323595
57 *163:43 *299:26 0
58 *163:43 *336:10 0
59 *163:43 *336:18 0
60 *163:58 *379:B 0.000133225
61 *163:58 *170:107 0
62 *163:58 *170:133 0.000864453
63 *163:58 *229:32 0.000149695
64 *163:58 *281:32 0
65 *163:58 *330:48 0
66 *163:58 *347:134 1.91391e-05
67 *163:85 *661:CLK 5.01835e-05
68 *163:85 *170:107 0.000111866
69 *163:85 *219:38 0.000165018
70 *163:85 *229:32 9.4763e-05
71 *163:85 *336:159 2.49093e-05
72 *163:85 *347:134 4.59547e-05
73 *163:85 *365:63 0.00010716
74 *163:136 *404:S 4.0605e-06
75 *163:136 *594:DE 5.39635e-06
76 *163:136 *635:CLK 0.000221375
77 *163:136 *643:DE 0.000277841
78 *163:136 *166:127 5.19946e-05
79 *163:136 *170:107 0.000687872
80 *163:136 *336:159 4.71822e-05
81 *163:136 *365:63 9.80784e-05
82 *461:A0 *661:DE 0.000107496
83 *461:A0 *163:93 0.000158451
84 *461:A1 *661:DE 0.000170488
85 *461:A1 *163:93 0.000110297
86 *461:A3 *656:DE 2.16355e-05
87 *461:A3 *163:93 2.57986e-05
88 *559:DE *163:14 2.75175e-05
89 *578:DE *655:DE 0.000102517
90 *587:DE *163:14 0.000566611
91 *658:D *658:DE 0.000129806
92 *659:D *659:DE 0.000129042
93 *660:D *660:DE 3.15447e-05
94 *11:38 *659:DE 0.000151549
95 *31:28 *163:43 9.72836e-05
96 *31:28 *163:58 3.77568e-05
97 *35:28 *681:DE 2.33103e-06
98 *38:16 *163:14 0
99 *41:16 *681:DE 0
100 *57:26 *655:DE 0.000742429
101 *60:42 *163:58 1.27831e-06
102 *68:38 *655:DE 0.000492087
103 *75:30 *163:85 0.000231479
104 *81:262 *681:DE 2.90638e-06
105 *82:212 *163:58 0
106 *88:32 *661:DE 6.3657e-05
107 *106:8 *163:14 0.000200794
108 *155:68 *163:58 0.000162688
109 *155:93 *657:DE 7.10162e-06
110 *158:53 *163:58 0
111 *162:35 *655:DE 9.23904e-05
112 *162:87 *163:58 0.000269769
*RES
1 *527:Y *163:14 44.976 
2 *163:14 *655:DE 34.381 
3 *163:14 *163:43 7.85315 
4 *163:43 *660:DE 15.7566 
5 *163:43 *163:58 22.6679 
6 *163:58 *658:DE 25.7877 
7 *163:58 *163:85 13.3222 
8 *163:85 *163:87 4.5 
9 *163:87 *163:93 5.35313 
10 *163:93 *656:DE 25.4231 
11 *163:93 *659:DE 27.2942 
12 *163:87 *661:DE 15.2413 
13 *163:85 *163:136 15.7429 
14 *163:136 *657:DE 25.7666 
15 *163:136 *681:DE 27.4045 
*END

*D_NET *164 0.0345071
*CONN
*I *649:DE I *D sky130_fd_sc_hd__edfxtp_1
*I *651:DE I *D sky130_fd_sc_hd__edfxtp_1
*I *652:DE I *D sky130_fd_sc_hd__edfxtp_1
*I *648:DE I *D sky130_fd_sc_hd__edfxtp_1
*I *654:DE I *D sky130_fd_sc_hd__edfxtp_1
*I *653:DE I *D sky130_fd_sc_hd__edfxtp_1
*I *682:DE I *D sky130_fd_sc_hd__edfxtp_1
*I *650:DE I *D sky130_fd_sc_hd__edfxtp_1
*I *529:Y O *D sky130_fd_sc_hd__nor2_1
*CAP
1 *649:DE 0.00269995
2 *651:DE 0.000837512
3 *652:DE 1.69208e-05
4 *648:DE 0.00120699
5 *654:DE 0.000257408
6 *653:DE 0.000224469
7 *682:DE 2.22104e-05
8 *650:DE 0.000227651
9 *529:Y 0.000560371
10 *164:75 0.0015714
11 *164:71 0.000203262
12 *164:60 0.00040519
13 *164:49 0.000826324
14 *164:41 0.00164606
15 *164:30 0.00148603
16 *164:26 0.00427685
17 *164:20 0.000984708
18 *648:DE *468:A3 6.83509e-05
19 *648:DE *505:A1 1.21461e-06
20 *648:DE *648:CLK 7.63448e-05
21 *648:DE *181:10 0.000100554
22 *648:DE *181:20 0.000110003
23 *648:DE *305:32 0
24 *648:DE *362:18 0.000321199
25 *648:DE *364:12 2.16355e-05
26 *649:DE *460:A3 3.34544e-06
27 *649:DE *182:152 0.000138599
28 *649:DE *217:44 0.000431438
29 *649:DE *226:36 0.00268121
30 *649:DE *233:34 3.13982e-05
31 *649:DE *279:38 8.5277e-06
32 *649:DE *299:90 9.98335e-05
33 *649:DE *302:24 0.00076573
34 *649:DE *310:36 8.6989e-05
35 *649:DE *311:28 0.000348805
36 *649:DE *336:58 0.000213999
37 *650:DE *1172:A 0.000154145
38 *650:DE *362:26 1.57428e-05
39 *650:DE *362:28 3.99086e-06
40 *651:DE *168:24 0.000236521
41 *651:DE *170:55 0.000124999
42 *651:DE *282:40 0.000377777
43 *653:DE *351:37 8.8679e-05
44 *654:DE *501:B 2.90638e-06
45 *654:DE *181:20 1.21461e-06
46 *654:DE *351:46 7.58398e-05
47 *682:DE *253:20 3.34544e-06
48 *164:20 *616:D 0.000290322
49 *164:20 *167:6 0.000162663
50 *164:20 *175:16 1.04726e-05
51 *164:26 *616:D 0.000692735
52 *164:26 *226:36 0.000129091
53 *164:30 *543:A1 0.000306745
54 *164:30 *616:D 0.000696645
55 *164:30 *166:42 0.00012376
56 *164:30 *241:16 0.000278346
57 *164:30 *346:32 0.000142233
58 *164:30 *346:62 0.000269084
59 *164:30 *356:139 0.000321641
60 *164:49 *588:DE 2.4726e-06
61 *164:49 *168:24 3.28974e-05
62 *164:49 *168:26 8.62625e-06
63 *164:49 *249:28 1.53151e-05
64 *164:49 *362:18 0.000451855
65 *164:49 *362:26 4.36296e-05
66 *164:60 *362:18 0.000234786
67 *164:71 *362:18 0.000132804
68 *164:75 *362:18 0.000174403
69 *396:B *651:DE 2.7487e-05
70 *410:A2 *654:DE 4.69109e-05
71 *454:B1 *649:DE 3.84921e-05
72 *492:A2 *648:DE 4.90331e-05
73 *492:B1 *648:DE 6.3657e-05
74 *505:A2 *648:DE 0.000122098
75 *506:A2 *164:20 0.000242085
76 *506:B1 *164:20 2.77625e-06
77 *664:DE *649:DE 0.000190358
78 *4:47 *164:20 7.87636e-05
79 *6:8 *164:20 2.78496e-05
80 *6:69 *164:30 1.28959e-05
81 *6:87 *654:DE 0.00025015
82 *13:23 *651:DE 8.97793e-05
83 *68:38 *649:DE 0.000176006
84 *80:160 *649:DE 0.000184223
85 *81:226 *651:DE 4.61962e-05
86 *81:262 *652:DE 3.39728e-05
87 *103:30 *654:DE 6.22316e-05
88 *104:83 *164:20 2.41483e-05
89 *107:24 *651:DE 4.99011e-06
90 *108:26 *648:DE 0.000130811
91 *115:35 *651:DE 4.15201e-05
92 *118:18 *648:DE 0.000311355
93 *118:18 *164:60 7.19431e-05
94 *118:18 *164:71 4.58999e-05
95 *118:18 *164:75 0.000199329
96 *118:20 *164:30 0
97 *118:20 *164:49 0.00011764
98 *118:20 *164:60 1.81931e-05
99 *118:28 *649:DE 1.60256e-05
100 *118:57 *164:20 2.20457e-05
101 *146:26 *654:DE 5.60804e-05
102 *151:12 *164:20 6.50727e-05
103 *151:12 *164:26 7.05908e-06
104 *151:14 *164:26 0.000275717
105 *151:14 *164:30 0
106 *153:22 *654:DE 1.42709e-05
107 *155:146 *164:30 0.000801256
108 *155:157 *651:DE 3.88358e-05
109 *155:157 *164:30 0.0001127
110 *155:157 *164:41 0.000144993
111 *155:198 *654:DE 2.7321e-05
112 *157:20 *651:DE 1.29445e-05
113 *157:20 *164:30 0.000123094
114 *157:20 *164:41 5.17046e-05
115 *157:48 *164:20 3.21591e-05
116 *157:58 *164:20 0.000178519
117 *161:20 *649:DE 0.00124831
*RES
1 *529:Y *164:20 37.9985 
2 *164:20 *164:26 16.4078 
3 *164:26 *164:30 43.1964 
4 *164:30 *650:DE 18.5296 
5 *164:30 *164:41 3.07775 
6 *164:41 *164:49 24.7125 
7 *164:49 *682:DE 14.153 
8 *164:49 *164:60 4.32351 
9 *164:60 *653:DE 18.7346 
10 *164:60 *164:71 2.6625 
11 *164:71 *164:75 4.43343 
12 *164:75 *654:DE 22.685 
13 *164:75 *648:DE 43.7203 
14 *164:71 *652:DE 14.153 
15 *164:41 *651:DE 25.3884 
16 *164:26 *649:DE 28.4458 
*END

*D_NET *165 0.013179
*CONN
*I *484:A3 I *D sky130_fd_sc_hd__a31oi_1
*I *478:Y O *D sky130_fd_sc_hd__o21ai_0
*CAP
1 *484:A3 0.00140097
2 *478:Y 0.000266687
3 *165:10 0.00281826
4 *165:8 0.00168398
5 *484:A3 *252:10 0.00202968
6 *165:10 *434:A1 0.000183371
7 *165:10 *437:A0 0.000221571
8 *165:10 *451:A1 1.84664e-05
9 *165:10 *451:S1 6.77919e-05
10 *165:10 *466:A1 0.000222214
11 *165:10 *466:S1 7.72394e-06
12 *165:10 *486:A1 3.90068e-05
13 *165:10 *197:10 0.000105896
14 *165:10 *200:10 7.49659e-06
15 *165:10 *259:28 0.000169344
16 *165:10 *350:353 0.000112118
17 *165:10 *350:355 0.000122091
18 *165:10 *350:373 2.19131e-05
19 *439:B1 *165:10 0.00013689
20 *454:B1 *484:A3 4.84593e-05
21 *11:173 *165:8 0.000410783
22 *64:10 *484:A3 0.000124157
23 *87:30 *165:10 0.000245012
24 *91:16 *165:10 0.000565006
25 *92:16 *165:10 0
26 *136:26 *165:10 0.00215009
*RES
1 *478:Y *165:8 18.3548 
2 *165:8 *165:10 53.3233 
3 *165:10 *484:A3 47.9039 
*END

*D_NET *166 0.035539
*CONN
*I *643:DE I *D sky130_fd_sc_hd__edfxtp_1
*I *644:DE I *D sky130_fd_sc_hd__edfxtp_1
*I *645:DE I *D sky130_fd_sc_hd__edfxtp_1
*I *646:DE I *D sky130_fd_sc_hd__edfxtp_1
*I *683:DE I *D sky130_fd_sc_hd__edfxtp_1
*I *641:DE I *D sky130_fd_sc_hd__edfxtp_1
*I *647:DE I *D sky130_fd_sc_hd__edfxtp_1
*I *642:DE I *D sky130_fd_sc_hd__edfxtp_1
*I *530:Y O *D sky130_fd_sc_hd__nor2_1
*CAP
1 *643:DE 0.000324914
2 *644:DE 0.000456542
3 *645:DE 0.00089696
4 *646:DE 0.00073709
5 *683:DE 5.45951e-05
6 *641:DE 0.000134032
7 *647:DE 0.000161104
8 *642:DE 4.91947e-05
9 *530:Y 0.000852625
10 *166:127 0.00255452
11 *166:113 0.00265047
12 *166:59 0.000595853
13 *166:57 0.00169575
14 *166:42 0.00192144
15 *166:38 0.00136078
16 *166:28 0.00197267
17 *166:18 0.00238377
18 *641:DE *647:CLK 0.000113968
19 *641:DE *357:14 2.15348e-05
20 *643:DE *457:A2 4.79809e-06
21 *643:DE *169:46 2.19923e-05
22 *643:DE *170:47 7.30103e-05
23 *643:DE *228:40 3.08347e-06
24 *643:DE *283:32 9.47227e-05
25 *643:DE *297:46 1.5769e-05
26 *643:DE *336:159 0.00014228
27 *644:DE *432:A1 0.000116254
28 *644:DE *598:CLK 7.92757e-06
29 *644:DE *644:CLK 9.34919e-05
30 *645:DE *432:A1 9.46208e-05
31 *645:DE *468:A3 6.00434e-05
32 *645:DE *222:38 0
33 *645:DE *253:58 5.11321e-05
34 *645:DE *313:52 1.85963e-05
35 *645:DE *350:157 0.000377586
36 *646:DE *553:A 1.5714e-05
37 *646:DE *1200:A 0.000394595
38 *646:DE *272:18 6.37652e-06
39 *646:DE *324:22 4.15661e-05
40 *646:DE *362:118 0.000203184
41 *647:DE *354:10 5.00906e-05
42 *683:DE *227:18 6.89724e-06
43 *166:18 *501:A 4.12833e-05
44 *166:18 *505:A1 5.11321e-05
45 *166:18 *557:A1 0.000944355
46 *166:18 *179:26 0.000150721
47 *166:18 *180:111 7.4489e-05
48 *166:28 *557:A1 0.000264199
49 *166:28 *282:40 0.000153427
50 *166:38 *616:D 0.000307023
51 *166:38 *346:32 8.67639e-05
52 *166:38 *356:87 4.97617e-05
53 *166:42 *616:D 4.37445e-05
54 *166:42 *311:28 6.18423e-05
55 *166:42 *343:18 4.96475e-05
56 *166:42 *343:138 2.72757e-05
57 *166:42 *346:32 1.66626e-05
58 *166:42 *346:62 0.000263537
59 *166:57 *438:A3 1.52483e-05
60 *166:57 *469:S0 4.90167e-06
61 *166:57 *566:DE 0
62 *166:57 *227:18 0
63 *166:57 *261:34 0
64 *166:57 *305:32 0
65 *166:57 *356:16 0
66 *166:59 *647:CLK 0.000154145
67 *166:59 *346:62 0.000304871
68 *166:113 *170:47 3.17436e-05
69 *166:113 *170:55 0.00190775
70 *166:113 *228:40 5.51077e-05
71 *166:113 *249:28 5.97065e-05
72 *166:113 *286:18 1.43905e-05
73 *166:127 *404:S 9.01966e-05
74 *166:127 *676:DE 0.000431215
75 *166:127 *328:52 7.24882e-05
76 *410:A2 *644:DE 5.04829e-06
77 *425:A2 *645:DE 0.000215232
78 *469:A0 *166:57 0
79 *501:C *166:18 9.4385e-05
80 *503:B *647:DE 0.000124447
81 *530:A *166:18 2.16355e-05
82 *530:B *166:18 7.92757e-06
83 *570:DE *645:DE 9.0045e-05
84 *598:D *644:DE 3.25371e-05
85 *645:D *645:DE 7.20605e-05
86 *657:DE *643:DE 8.04172e-05
87 *670:DE *166:57 0.000325845
88 *673:DE *645:DE 6.99044e-06
89 *673:DE *166:127 0
90 *677:DE *645:DE 0
91 *677:DE *166:127 0.000142078
92 *681:DE *166:127 0.000388067
93 *691:DE *166:57 0.000393511
94 *3:20 *166:57 1.20036e-05
95 *4:12 *166:57 0
96 *4:39 *166:57 0
97 *6:16 *166:57 0
98 *13:23 *166:28 0.000162778
99 *41:16 *166:127 5.17431e-05
100 *44:30 *645:DE 0.000368279
101 *54:22 *166:127 0.000208457
102 *77:14 *166:127 6.28953e-06
103 *80:39 *646:DE 9.13061e-05
104 *82:6 *646:DE 3.48849e-05
105 *82:41 *166:18 1.77472e-05
106 *82:66 *644:DE 0.000129042
107 *82:92 *646:DE 1.78704e-05
108 *93:30 *166:57 0
109 *94:26 *166:57 4.59359e-05
110 *95:18 *641:DE 3.5328e-05
111 *95:18 *166:59 3.58119e-05
112 *101:14 *645:DE 0
113 *103:30 *166:57 1.6656e-05
114 *113:10 *166:28 0.00044663
115 *113:10 *166:38 0.00104574
116 *118:20 *166:42 0
117 *118:28 *166:42 8.11463e-06
118 *119:48 *166:59 4.2235e-05
119 *120:73 *166:28 0.000453979
120 *120:73 *166:38 0.00104239
121 *140:36 *166:18 2.1558e-06
122 *153:22 *166:18 0.00106299
123 *153:22 *166:28 0.000269755
124 *155:44 *166:38 9.64718e-05
125 *155:44 *166:42 0.000105895
126 *156:58 *166:127 6.20258e-05
127 *158:10 *645:DE 0.000100258
128 *160:33 *166:57 0.000144273
129 *160:153 *166:57 3.88213e-05
130 *160:172 *166:57 0.00037017
131 *163:136 *643:DE 0.000277841
132 *163:136 *166:127 5.19946e-05
133 *164:30 *166:42 0.00012376
*RES
1 *530:Y *166:18 25.1292 
2 *166:18 *166:28 13.7074 
3 *166:28 *166:38 36.0953 
4 *166:38 *166:42 18.3743 
5 *166:42 *642:DE 10.3523 
6 *166:42 *166:57 45.0599 
7 *166:57 *166:59 8.48785 
8 *166:59 *647:DE 22.6063 
9 *166:59 *641:DE 13.0229 
10 *166:38 *683:DE 14.7076 
11 *166:28 *646:DE 38.9359 
12 *166:18 *166:113 3.21841 
13 *166:113 *166:127 34.9631 
14 *166:127 *645:DE 45.7761 
15 *166:127 *644:DE 26.6942 
16 *166:113 *643:DE 24.2009 
*END

*D_NET *167 0.0472971
*CONN
*I *566:DE I *D sky130_fd_sc_hd__edfxtp_1
*I *676:DE I *D sky130_fd_sc_hd__edfxtp_1
*I *562:DE I *D sky130_fd_sc_hd__edfxtp_1
*I *560:DE I *D sky130_fd_sc_hd__edfxtp_1
*I *564:DE I *D sky130_fd_sc_hd__edfxtp_1
*I *561:DE I *D sky130_fd_sc_hd__edfxtp_1
*I *565:DE I *D sky130_fd_sc_hd__edfxtp_1
*I *563:DE I *D sky130_fd_sc_hd__edfxtp_1
*I *531:Y O *D sky130_fd_sc_hd__nor2_1
*CAP
1 *566:DE 0.00211205
2 *676:DE 0.000985969
3 *562:DE 0.000236892
4 *560:DE 0.000293947
5 *564:DE 0.000675077
6 *561:DE 0.000152636
7 *565:DE 0.000774914
8 *563:DE 0.000365534
9 *531:Y 0.000100794
10 *167:167 0.00291544
11 *167:121 0.00126394
12 *167:117 0.00294134
13 *167:97 0.0045243
14 *167:86 0.0021381
15 *167:28 0.00185255
16 *167:14 0.0029814
17 *167:6 0.00268198
18 *560:DE *560:CLK 4.53574e-05
19 *560:DE *609:CLK 0.000108275
20 *560:DE *213:20 4.86175e-05
21 *561:DE *561:CLK 2.57986e-05
22 *561:DE *332:32 1.75951e-05
23 *562:DE *168:131 6.11872e-05
24 *562:DE *249:28 3.93821e-05
25 *563:DE *563:CLK 4.01113e-05
26 *564:DE *564:CLK 0.000110306
27 *564:DE *213:20 6.40849e-05
28 *564:DE *366:53 0.000249203
29 *565:DE *568:CLK 8.714e-05
30 *565:DE *168:101 0.000208204
31 *565:DE *173:20 8.15496e-05
32 *565:DE *214:18 0.000456804
33 *566:DE *394:D1 1.06377e-05
34 *566:DE *502:B1 0
35 *566:DE *507:B1 8.90668e-05
36 *566:DE *699:CLK 0.00015465
37 *566:DE *282:40 0.000389731
38 *676:DE *417:A1 8.09529e-05
39 *676:DE *1204:A 0.000552193
40 *676:DE *253:58 2.06526e-05
41 *676:DE *297:46 0.000351512
42 *676:DE *328:32 0.000142198
43 *676:DE *328:52 0
44 *676:DE *351:12 0.00021528
45 *676:DE *351:31 0.000127594
46 *167:14 *394:D1 0.000148135
47 *167:14 *502:B1 0.000547546
48 *167:14 *528:A1 0.000244209
49 *167:14 *181:63 0.000567723
50 *167:28 *383:C1 0.000188995
51 *167:28 *181:63 3.38779e-05
52 *167:28 *343:18 0.000246749
53 *167:28 *355:53 2.5896e-05
54 *167:28 *355:117 1.26206e-05
55 *167:28 *355:134 2.55661e-06
56 *167:86 *465:A3 0
57 *167:86 *214:18 0.000213862
58 *167:86 *226:36 8.69254e-05
59 *167:86 *311:28 0.000333857
60 *167:86 *343:18 0.00151604
61 *167:97 *222:24 6.20642e-05
62 *167:97 *356:63 0.000142509
63 *167:117 *188:30 1.24616e-05
64 *167:117 *209:32 0.000293266
65 *167:117 *222:24 7.943e-06
66 *167:117 *234:32 7.20738e-05
67 *167:117 *242:18 5.88059e-05
68 *167:117 *268:52 0.000226438
69 *167:117 *287:24 0.000123271
70 *167:117 *290:22 0.000247189
71 *167:117 *293:42 5.63639e-06
72 *167:117 *313:20 2.36743e-05
73 *167:117 *319:36 5.30363e-05
74 *167:117 *321:22 0.000155605
75 *167:117 *330:48 0.000254189
76 *167:117 *332:32 5.79411e-05
77 *167:117 *366:57 0.000116813
78 *167:167 *417:A0 3.10935e-05
79 *167:167 *666:CLK 0.000319297
80 *167:167 *168:26 0
81 *167:167 *168:28 0
82 *167:167 *169:27 5.56539e-05
83 *167:167 *212:46 3.21156e-06
84 *167:167 *244:24 0.000133323
85 *167:167 *270:24 5.37912e-05
86 *167:167 *272:18 4.58728e-05
87 *167:167 *292:24 0.000304657
88 *167:167 *297:46 0.000213055
89 *167:167 *323:32 2.55448e-05
90 *167:167 *324:22 0
91 *167:167 *347:51 2.25775e-05
92 *167:167 *351:12 0.000130299
93 *167:167 *351:109 0.000133152
94 *167:167 *351:127 0.000150097
95 *167:167 *356:63 1.91391e-05
96 *469:A2 *566:DE 3.58503e-05
97 *527:A *566:DE 0.000145335
98 *533:B *566:DE 0
99 *557:A2 *566:DE 0.00078685
100 *563:D *563:DE 8.02056e-05
101 *563:D *167:28 1.80122e-05
102 *564:D *564:DE 5.39913e-05
103 *573:DE *167:86 0.000132688
104 *608:D *167:86 3.46168e-05
105 *659:D *167:167 1.34445e-05
106 *689:D *167:14 2.15656e-05
107 *2:14 *167:28 2.02035e-05
108 *2:14 *167:117 2.11205e-06
109 *4:12 *566:DE 0.000136838
110 *4:39 *566:DE 1.83795e-06
111 *11:38 *167:167 0.00024482
112 *11:44 *167:86 9.04862e-05
113 *11:44 *167:97 0.000363559
114 *11:44 *167:167 0.00053795
115 *21:20 *167:117 2.95475e-05
116 *22:32 *566:DE 0
117 *48:10 *560:DE 8.16007e-06
118 *48:10 *564:DE 1.28451e-05
119 *54:22 *676:DE 6.73319e-05
120 *64:10 *167:117 1.22851e-05
121 *71:24 *167:86 3.55694e-05
122 *71:24 *167:97 5.79233e-05
123 *72:30 *167:117 3.74635e-05
124 *75:30 *167:167 6.66174e-05
125 *77:14 *676:DE 7.97971e-06
126 *78:26 *566:DE 0
127 *80:93 *167:86 0.000118722
128 *80:188 *167:117 3.68532e-05
129 *80:215 *167:117 4.71545e-05
130 *82:92 *565:DE 0.000290444
131 *82:98 *565:DE 7.80988e-05
132 *82:98 *167:28 1.03403e-05
133 *82:111 *167:28 0.000300951
134 *93:30 *566:DE 7.70005e-06
135 *104:39 *565:DE 7.7477e-05
136 *104:83 *167:6 0.000492179
137 *104:83 *167:14 0.000265296
138 *114:26 *167:6 0.000264612
139 *114:26 *167:14 0.000262509
140 *115:43 *167:28 7.52125e-05
141 *115:43 *167:86 6.7083e-05
142 *116:29 *565:DE 0.000361446
143 *116:29 *167:14 0.000266345
144 *120:71 *167:86 6.47897e-05
145 *120:73 *167:86 8.77951e-05
146 *125:28 *167:167 0.000433994
147 *139:16 *565:DE 1.9031e-05
148 *139:16 *167:28 5.43404e-05
149 *148:28 *167:117 0.00034605
150 *151:14 *167:86 8.68321e-05
151 *152:20 *565:DE 0.000140683
152 *155:14 *167:28 0.000284393
153 *155:44 *167:117 0.000230681
154 *155:127 *167:28 8.52398e-05
155 *155:146 *167:28 4.8363e-06
156 *156:46 *676:DE 8.4247e-06
157 *157:48 *167:14 5.25084e-05
158 *157:131 *167:167 2.77364e-06
159 *162:107 *676:DE 0.000224696
160 *164:20 *167:6 0.000162663
161 *166:57 *566:DE 0
162 *166:127 *676:DE 0.000431215
*RES
1 *531:Y *167:6 14.964 
2 *167:6 *167:14 30.7061 
3 *167:14 *167:28 25.043 
4 *167:28 *563:DE 17.0015 
5 *167:28 *565:DE 43.0182 
6 *167:14 *167:86 37.5227 
7 *167:86 *561:DE 16.9683 
8 *167:86 *167:97 7.02265 
9 *167:97 *167:117 48.2567 
10 *167:117 *167:121 9.66022 
11 *167:121 *564:DE 26.2399 
12 *167:121 *560:DE 23.0637 
13 *167:97 *167:167 43.1769 
14 *167:167 *562:DE 19.2892 
15 *167:167 *676:DE 34.3164 
16 *167:6 *566:DE 46.1231 
*END

*D_NET *168 0.0307622
*CONN
*I *588:DE I *D sky130_fd_sc_hd__edfxtp_1
*I *594:DE I *D sky130_fd_sc_hd__edfxtp_1
*I *672:DE I *D sky130_fd_sc_hd__edfxtp_1
*I *589:DE I *D sky130_fd_sc_hd__edfxtp_1
*I *592:DE I *D sky130_fd_sc_hd__edfxtp_1
*I *593:DE I *D sky130_fd_sc_hd__edfxtp_1
*I *590:DE I *D sky130_fd_sc_hd__edfxtp_1
*I *591:DE I *D sky130_fd_sc_hd__edfxtp_1
*I *532:Y O *D sky130_fd_sc_hd__nor2_1
*CAP
1 *588:DE 0.000134286
2 *594:DE 0.000835656
3 *672:DE 0
4 *589:DE 5.72707e-05
5 *592:DE 0
6 *593:DE 0
7 *590:DE 0.000374191
8 *591:DE 0
9 *532:Y 0.000713113
10 *168:131 0.00190952
11 *168:101 0.00178709
12 *168:84 0.00289757
13 *168:63 0.00393986
14 *168:38 0.00113669
15 *168:28 0.00285651
16 *168:26 0.00100488
17 *168:24 0.00189014
18 *168:10 0.0013169
19 *590:DE *235:24 3.39728e-05
20 *590:DE *297:24 0
21 *594:DE *404:A0 0.000115281
22 *594:DE *169:46 4.61604e-05
23 *594:DE *331:30 1.17085e-05
24 *594:DE *367:16 0.000151975
25 *594:DE *367:22 0.000165594
26 *594:DE *367:26 0.000125512
27 *594:DE *367:34 0.000179424
28 *168:10 *373:A 1.37563e-05
29 *168:10 *363:32 0.000117018
30 *168:24 *170:55 0.000374881
31 *168:24 *249:28 3.5534e-06
32 *168:24 *282:40 4.2303e-05
33 *168:24 *328:32 0.000280153
34 *168:26 *324:22 9.41239e-05
35 *168:26 *337:26 0.000312778
36 *168:26 *351:109 0
37 *168:26 *362:26 1.29348e-05
38 *168:28 *214:18 0.000260899
39 *168:28 *317:22 1.5714e-05
40 *168:28 *337:26 0.000222525
41 *168:28 *351:127 0
42 *168:38 *214:18 8.22431e-05
43 *168:38 *241:16 0.000646294
44 *168:38 *330:12 0.000849248
45 *168:63 *220:28 0.000182912
46 *168:63 *293:56 6.14756e-06
47 *168:63 *297:24 3.94532e-05
48 *168:63 *330:12 0.000171545
49 *168:84 *631:CLK 1.1718e-05
50 *168:84 *200:10 3.52635e-05
51 *168:84 *321:22 2.8182e-06
52 *168:101 *568:CLK 6.11872e-05
53 *168:101 *662:CLK 2.16355e-05
54 *168:101 *220:28 2.95375e-05
55 *168:131 *249:28 3.07179e-05
56 *168:131 *297:46 4.23352e-05
57 *168:131 *331:30 2.27622e-05
58 *168:131 *351:109 4.99151e-05
59 *168:131 *362:18 4.28856e-07
60 *494:B *168:10 1.58551e-05
61 *562:DE *168:131 6.11872e-05
62 *565:DE *168:101 0.000208204
63 *568:DE *168:101 1.11917e-05
64 *591:D *168:38 3.42384e-05
65 *592:D *168:101 8.11133e-05
66 *593:D *168:84 3.42384e-05
67 *631:D *168:84 2.81047e-05
68 *638:D *594:DE 0.000189558
69 *645:D *594:DE 0.000252389
70 *651:DE *168:24 0.000236521
71 *662:DE *168:101 0.000100247
72 *681:DE *594:DE 0.000111967
73 *684:DE *168:84 0.000288598
74 *13:23 *168:24 5.41771e-05
75 *81:95 *590:DE 7.69356e-05
76 *81:95 *168:84 5.51483e-06
77 *81:202 *168:84 0.000177764
78 *82:66 *594:DE 2.90638e-06
79 *82:268 *168:63 0.0002618
80 *82:268 *168:84 0.000205101
81 *118:20 *168:26 0
82 *139:16 *168:101 0.000211991
83 *147:12 *168:10 0.000194736
84 *147:18 *168:10 0.000678224
85 *147:18 *168:24 2.37478e-05
86 *148:28 *168:63 0.000187272
87 *150:14 *168:10 0.000396846
88 *155:44 *168:38 1.88179e-05
89 *155:68 *168:63 8.55147e-05
90 *157:20 *168:10 9.76189e-05
91 *157:20 *168:24 5.38612e-06
92 *158:53 *168:63 2.33103e-06
93 *161:74 *168:28 6.4135e-05
94 *161:74 *168:38 8.77364e-05
95 *161:85 *168:28 0.000139379
96 *161:108 *168:28 8.802e-05
97 *162:79 *168:63 0.000123746
98 *162:87 *590:DE 0.000149575
99 *162:87 *168:63 0
100 *163:136 *594:DE 5.39635e-06
101 *164:49 *588:DE 2.4726e-06
102 *164:49 *168:24 3.28974e-05
103 *164:49 *168:26 8.62625e-06
104 *167:167 *168:26 0
105 *167:167 *168:28 0
*RES
1 *532:Y *168:10 32.9202 
2 *168:10 *168:24 9.24364 
3 *168:24 *168:26 9.72179 
4 *168:26 *168:28 17.1963 
5 *168:28 *168:38 20.4442 
6 *168:38 *591:DE 9.24915 
7 *168:38 *168:63 31.6454 
8 *168:63 *590:DE 25.2272 
9 *168:63 *168:84 43.9162 
10 *168:84 *593:DE 9.24915 
11 *168:28 *168:101 41.2743 
12 *168:101 *592:DE 9.24915 
13 *168:26 *589:DE 14.7076 
14 *168:24 *168:131 30.4542 
15 *168:131 *672:DE 9.24915 
16 *168:131 *594:DE 42.3997 
17 *168:10 *588:DE 16.3112 
*END

*D_NET *169 0.0267172
*CONN
*I *640:DE I *D sky130_fd_sc_hd__edfxtp_1
*I *624:DE I *D sky130_fd_sc_hd__edfxtp_1
*I *634:DE I *D sky130_fd_sc_hd__edfxtp_1
*I *637:DE I *D sky130_fd_sc_hd__edfxtp_1
*I *639:DE I *D sky130_fd_sc_hd__edfxtp_1
*I *638:DE I *D sky130_fd_sc_hd__edfxtp_1
*I *635:DE I *D sky130_fd_sc_hd__edfxtp_1
*I *636:DE I *D sky130_fd_sc_hd__edfxtp_1
*I *533:Y O *D sky130_fd_sc_hd__nor2_1
*CAP
1 *640:DE 0.00036118
2 *624:DE 3.47581e-05
3 *634:DE 0.000259406
4 *637:DE 0
5 *639:DE 0
6 *638:DE 1.46909e-05
7 *635:DE 0.000118567
8 *636:DE 0.000548366
9 *533:Y 0
10 *169:107 0.000558809
11 *169:96 0.000729483
12 *169:81 0.00110131
13 *169:71 0.00197924
14 *169:46 0.00153911
15 *169:27 0.00145318
16 *169:8 0.00288795
17 *169:6 0.00154779
18 *624:DE *366:53 8.49282e-05
19 *634:DE *242:18 0.000126967
20 *634:DE *313:20 1.68531e-05
21 *635:DE *289:20 1.60725e-05
22 *636:DE *636:CLK 3.74298e-05
23 *636:DE *267:28 2.31719e-05
24 *636:DE *347:51 5.9036e-05
25 *640:DE *468:A2 4.90621e-05
26 *640:DE *640:CLK 0.000209388
27 *640:DE *237:22 4.00149e-05
28 *640:DE *272:40 2.16355e-05
29 *169:8 *420:A1 0.000559695
30 *169:8 *438:A1 2.43959e-05
31 *169:8 *699:CLK 0.000356319
32 *169:8 *182:47 0.00051729
33 *169:8 *212:56 0.001297
34 *169:8 *244:24 4.16822e-05
35 *169:8 *301:30 0.000311084
36 *169:8 *343:167 4.42033e-05
37 *169:27 *212:46 1.24546e-05
38 *169:27 *212:56 0.00040615
39 *169:27 *219:38 1.44508e-05
40 *169:27 *229:32 0.000752231
41 *169:27 *244:24 0.000208346
42 *169:27 *297:24 0.000296993
43 *169:27 *301:30 9.04241e-05
44 *169:27 *336:159 0.000576197
45 *169:46 *293:56 3.1399e-05
46 *169:46 *297:24 0.000198707
47 *169:46 *336:159 0.000260499
48 *169:71 *435:B2 0.000621911
49 *169:71 *457:A2 9.71439e-06
50 *169:71 *539:A1 1.22858e-05
51 *169:71 *638:CLK 0
52 *169:71 *211:24 5.31193e-05
53 *169:71 *238:22 0.000387008
54 *169:71 *327:58 0.000248833
55 *169:71 *331:30 8.82817e-05
56 *169:71 *367:34 0
57 *169:81 *291:26 6.04168e-06
58 *169:81 *366:192 0
59 *169:96 *221:26 7.55464e-05
60 *169:96 *291:26 9.88016e-06
61 *169:107 *242:18 0.000120285
62 *469:A0 *169:8 6.50206e-05
63 *594:DE *169:46 4.61604e-05
64 *605:D *169:96 7.55514e-05
65 *605:D *169:107 8.29e-05
66 *608:D *169:8 0.000623549
67 *632:D *169:81 2.56607e-05
68 *638:D *169:46 3.31882e-05
69 *639:D *169:81 3.15447e-05
70 *643:DE *169:46 2.19923e-05
71 *657:DE *169:71 0.000604361
72 *663:DE *169:81 0.000185476
73 *4:12 *169:8 0
74 *12:30 *169:96 0.000457956
75 *13:62 *169:8 8.11461e-05
76 *14:14 *169:71 3.30319e-05
77 *21:18 *638:DE 3.70874e-06
78 *21:18 *169:71 0.000106489
79 *21:20 *640:DE 9.34263e-05
80 *21:20 *169:81 0.000299457
81 *23:16 *169:96 0.000454495
82 *48:10 *634:DE 0.000334665
83 *48:10 *169:107 0.000339353
84 *75:30 *169:27 6.5419e-05
85 *149:22 *169:8 0.000889848
86 *155:99 *169:81 2.76104e-05
87 *158:39 *169:71 7.48876e-06
88 *162:93 *169:46 0.000146363
89 *162:107 *169:46 7.48173e-05
90 *167:167 *169:27 5.56539e-05
*RES
1 *533:Y *169:6 13.7491 
2 *169:6 *169:8 54.569 
3 *169:8 *636:DE 25.3898 
4 *169:8 *169:27 21.9801 
5 *169:27 *635:DE 15.8591 
6 *169:27 *169:46 20.1574 
7 *169:46 *638:DE 9.65304 
8 *169:46 *169:71 23.7919 
9 *169:71 *169:81 18.0233 
10 *169:81 *639:DE 9.24915 
11 *169:81 *169:96 23.2203 
12 *169:96 *637:DE 9.24915 
13 *169:96 *169:107 12.4182 
14 *169:107 *634:DE 21.5227 
15 *169:107 *624:DE 14.7076 
16 *169:71 *640:DE 22.7876 
*END

*D_NET *170 0.0326587
*CONN
*I *598:DE I *D sky130_fd_sc_hd__edfxtp_1
*I *601:DE I *D sky130_fd_sc_hd__edfxtp_1
*I *597:DE I *D sky130_fd_sc_hd__edfxtp_1
*I *596:DE I *D sky130_fd_sc_hd__edfxtp_1
*I *671:DE I *D sky130_fd_sc_hd__edfxtp_1
*I *599:DE I *D sky130_fd_sc_hd__edfxtp_1
*I *595:DE I *D sky130_fd_sc_hd__edfxtp_1
*I *600:DE I *D sky130_fd_sc_hd__edfxtp_1
*I *534:Y O *D sky130_fd_sc_hd__nor2_1
*CAP
1 *598:DE 0.000315549
2 *601:DE 0
3 *597:DE 0
4 *596:DE 0.000583945
5 *671:DE 0.000570967
6 *599:DE 0.000412913
7 *595:DE 0.000869563
8 *600:DE 0.000112819
9 *534:Y 0.000546334
10 *170:202 0.000947887
11 *170:135 0.0011768
12 *170:133 0.0011454
13 *170:107 0.00220048
14 *170:55 0.00266206
15 *170:47 0.00291489
16 *170:41 0.00205831
17 *170:14 0.0016268
18 *595:DE *595:CLK 2.90638e-06
19 *595:DE *622:CLK 1.66425e-05
20 *595:DE *1172:A 5.04829e-06
21 *595:DE *361:14 7.50872e-05
22 *596:DE *210:20 3.33173e-06
23 *596:DE *236:32 0.000124538
24 *596:DE *279:62 5.04829e-06
25 *596:DE *325:20 0.000134782
26 *598:DE *467:A1 1.87271e-05
27 *598:DE *476:A1 3.4944e-05
28 *598:DE *217:80 5.75266e-05
29 *598:DE *328:52 3.51243e-05
30 *599:DE *622:CLK 1.45104e-05
31 *671:DE *378:A 5.04829e-06
32 *671:DE *236:32 9.34685e-05
33 *671:DE *357:52 9.82896e-06
34 *671:DE *357:67 0.000126004
35 *170:14 *510:A1 1.69093e-05
36 *170:14 *600:CLK 9.13978e-05
37 *170:41 *179:26 3.40194e-05
38 *170:41 *186:28 0.000116561
39 *170:41 *245:20 0.000111709
40 *170:41 *279:38 0.000214158
41 *170:47 *457:A2 2.68551e-05
42 *170:47 *279:38 0.000804964
43 *170:55 *457:A2 0.000196239
44 *170:55 *249:28 2.07768e-05
45 *170:55 *286:18 9.76824e-06
46 *170:55 *328:32 0.000784313
47 *170:107 *404:S 2.78622e-05
48 *170:107 *441:A1 3.51505e-05
49 *170:107 *590:CLK 0.000229359
50 *170:107 *336:134 2.70549e-05
51 *170:107 *336:159 0.000129858
52 *170:107 *365:63 1.28587e-05
53 *170:133 *630:CLK 0
54 *170:133 *279:38 9.53042e-05
55 *170:133 *350:545 9.67553e-06
56 *170:133 *357:80 2.15916e-05
57 *170:133 *359:79 9.81829e-05
58 *170:202 *183:16 0.000340521
59 *170:202 *294:32 0.000133527
60 *393:A2 *170:133 3.66058e-05
61 *395:B *170:41 0.000778315
62 *395:B *170:47 0.000833814
63 *396:B *595:DE 8.83898e-06
64 *410:A2 *598:DE 3.6783e-05
65 *430:A2 *170:202 0.000366105
66 *453:A0 *170:133 0.000142385
67 *461:A0 *170:107 0.000217624
68 *570:DE *170:41 7.13655e-06
69 *582:DE *170:202 0.000160273
70 *587:DE *596:DE 0
71 *599:D *599:DE 8.06219e-05
72 *643:DE *170:47 7.30103e-05
73 *645:D *170:41 0.000405988
74 *651:D *595:DE 5.04829e-06
75 *651:DE *170:55 0.000124999
76 *664:DE *170:133 2.88866e-05
77 *666:DE *170:107 1.5714e-05
78 *10:68 *595:DE 1.4026e-05
79 *10:68 *599:DE 8.7692e-05
80 *31:28 *170:133 3.77568e-05
81 *38:16 *671:DE 0.000265513
82 *60:42 *170:107 3.87022e-06
83 *68:38 *170:133 5.99155e-05
84 *72:30 *170:133 0.000275065
85 *76:16 *170:107 1.27831e-06
86 *80:39 *595:DE 9.49135e-05
87 *80:58 *170:14 0.000419951
88 *81:95 *170:107 7.31578e-05
89 *82:174 *170:107 7.09666e-06
90 *96:22 *595:DE 0.000101987
91 *101:14 *170:41 0
92 *111:24 *170:14 6.71978e-06
93 *112:22 *600:DE 0
94 *112:22 *170:14 0.000100716
95 *112:22 *170:41 0
96 *115:35 *595:DE 0
97 *115:35 *599:DE 0
98 *125:28 *170:107 0
99 *156:14 *595:DE 7.14746e-05
100 *156:46 *170:202 6.22732e-06
101 *156:101 *596:DE 0.000214341
102 *158:10 *600:DE 0
103 *158:10 *170:41 0.000203625
104 *162:12 *170:133 0.000136416
105 *162:107 *170:202 6.34564e-05
106 *163:14 *170:133 0.000293288
107 *163:43 *170:133 0.000323595
108 *163:58 *170:107 0
109 *163:58 *170:133 0.000864453
110 *163:85 *170:107 0.000111866
111 *163:136 *170:107 0.000687872
112 *166:113 *170:47 3.17436e-05
113 *166:113 *170:55 0.00190775
114 *168:24 *170:55 0.000374881
*RES
1 *534:Y *170:14 28.0438 
2 *170:14 *600:DE 20.485 
3 *170:14 *170:41 23.0212 
4 *170:41 *170:47 2.53485 
5 *170:47 *170:55 7.33962 
6 *170:55 *595:DE 45.9615 
7 *170:55 *599:DE 23.4533 
8 *170:47 *170:107 39.4979 
9 *170:107 *170:133 45.2111 
10 *170:133 *170:135 0.578717 
11 *170:135 *671:DE 32.033 
12 *170:135 *596:DE 33.22 
13 *170:133 *597:DE 9.24915 
14 *170:41 *170:202 20.521 
15 *170:202 *601:DE 9.24915 
16 *170:202 *598:DE 25.9458 
*END

*D_NET *172 0.00673423
*CONN
*I *669:D I *D sky130_fd_sc_hd__dfxtp_1
*I *552:Y O *D sky130_fd_sc_hd__a21oi_1
*CAP
1 *669:D 0
2 *552:Y 0.000796949
3 *172:18 0.00153132
4 *172:8 0.00232827
5 *172:8 *459:A1 0.000591484
6 *172:18 *450:A1 0.00011326
7 *172:18 *467:A0 6.9828e-05
8 *172:18 *669:CLK 0.000134938
9 *172:18 *177:10 0.000362698
10 *172:18 *213:20 0.000225501
11 *172:18 *263:22 1.57085e-05
12 *172:18 *264:12 0.000180937
13 *172:18 *264:30 0
14 *172:18 *285:34 0.000114409
15 *172:18 *291:26 5.481e-05
16 *172:18 *350:206 0.000197873
17 *60:62 *172:18 1.62467e-05
*RES
1 *552:Y *172:8 27.783 
2 *172:8 *172:18 45.2 
3 *172:18 *669:D 9.24915 
*END

*D_NET *173 0.00823691
*CONN
*I *612:D I *D sky130_fd_sc_hd__dfxtp_1
*I *554:X O *D sky130_fd_sc_hd__and2_0
*CAP
1 *612:D 0.00118069
2 *554:X 0.000602332
3 *173:20 0.00178302
4 *612:D *1200:A 4.57882e-05
5 *612:D *180:87 8.06767e-05
6 *612:D *272:18 3.18826e-06
7 *612:D *309:32 3.54768e-05
8 *612:D *317:22 0
9 *612:D *361:30 9.72539e-05
10 *612:D *361:32 0.00025705
11 *612:D *361:36 0.000101763
12 *612:D *361:42 0
13 *612:D *362:118 2.04854e-05
14 *173:20 *383:C1 3.8181e-05
15 *173:20 *568:CLK 0.000469833
16 *173:20 *355:140 0.000193655
17 *383:A2 *173:20 2.24484e-05
18 *428:A1 *173:20 9.29815e-06
19 *428:A2 *612:D 0.000500842
20 *545:A2 *173:20 0.000239662
21 *565:DE *173:20 8.15496e-05
22 *4:57 *173:20 0.000172691
23 *44:30 *173:20 0.000217293
24 *80:8 *173:20 0.000779843
25 *96:16 *173:20 0.000220191
26 *113:10 *612:D 7.71503e-05
27 *130:52 *612:D 0.000463136
28 *139:16 *173:20 4.3116e-06
29 *157:30 *612:D 0.000539092
*RES
1 *554:X *173:20 47.2664 
2 *173:20 *612:D 37.2776 
*END

*D_NET *175 0.00590511
*CONN
*I *616:D I *D sky130_fd_sc_hd__dfxtp_1
*I *557:Y O *D sky130_fd_sc_hd__a21oi_1
*CAP
1 *616:D 0.00110879
2 *557:Y 0.000363919
3 *175:16 0.00147271
4 *616:D *616:CLK 0.000205358
5 *616:D *226:36 9.54494e-05
6 *616:D *344:16 1.91246e-05
7 *616:D *356:89 0.00019519
8 *175:16 *382:B1 7.13655e-06
9 *175:16 *557:A1 1.66771e-05
10 *557:A2 *175:16 4.20184e-06
11 *4:47 *616:D 8.70483e-06
12 *6:10 *175:16 0
13 *106:8 *175:16 6.50586e-05
14 *108:26 *175:16 0
15 *114:10 *175:16 2.47286e-05
16 *118:28 *616:D 0
17 *140:36 *175:16 0.000131401
18 *151:12 *616:D 0
19 *151:12 *175:16 2.33103e-06
20 *151:14 *616:D 0.000135906
21 *157:58 *175:16 7.48876e-06
22 *164:20 *616:D 0.000290322
23 *164:20 *175:16 1.04726e-05
24 *164:26 *616:D 0.000692735
25 *164:30 *616:D 0.000696645
26 *166:38 *616:D 0.000307023
27 *166:42 *616:D 4.37445e-05
*RES
1 *557:Y *175:16 21.886 
2 *175:16 *616:D 49.9315 
*END

*D_NET *176 0.00212579
*CONN
*I *480:B I *D sky130_fd_sc_hd__nand2_1
*I *479:X O *D sky130_fd_sc_hd__mux4_2
*CAP
1 *480:B 0.000763682
2 *479:X 0.000763682
3 *480:B *457:A1 4.26679e-05
4 *480:B *465:S0 4.03621e-05
5 *480:B *479:A1 6.08467e-05
6 *480:B *479:A2 0.000256037
7 *480:B *479:A3 2.16355e-05
8 *480:B *182:133 1.37189e-05
9 *480:B *182:152 1.65872e-05
10 *480:B *271:26 3.04407e-05
11 *480:B *350:408 0.000107496
12 *23:26 *480:B 8.6297e-06
*RES
1 *479:X *480:B 39.7606 
*END

*D_NET *177 0.00566662
*CONN
*I *609:D I *D sky130_fd_sc_hd__dfxtp_1
*I *430:Y O *D sky130_fd_sc_hd__a21oi_1
*CAP
1 *609:D 0.000530008
2 *430:Y 0.00110746
3 *177:10 0.00163747
4 *609:D *266:28 8.43713e-06
5 *609:D *333:26 4.34167e-05
6 *177:10 *450:A3 1.33278e-05
7 *177:10 *450:S1 0.00031269
8 *177:10 *213:20 1.72206e-05
9 *177:10 *258:24 5.24713e-05
10 *177:10 *263:22 0.000141076
11 *177:10 *264:12 0.000425271
12 *177:10 *264:30 8.97871e-05
13 *430:A2 *177:10 2.02989e-05
14 *605:D *609:D 9.97425e-05
15 *31:58 *609:D 9.42325e-05
16 *48:10 *177:10 0.000522097
17 *48:30 *177:10 0.000164843
18 *157:131 *609:D 2.40736e-05
19 *172:18 *177:10 0.000362698
*RES
1 *430:Y *177:10 46.2417 
2 *177:10 *609:D 31.7648 
*END

*D_NET *178 0.00802216
*CONN
*I *607:D I *D sky130_fd_sc_hd__dfxtp_1
*I *448:Y O *D sky130_fd_sc_hd__a21oi_1
*CAP
1 *607:D 0.00147199
2 *448:Y 0.000998838
3 *178:12 0.00247083
4 *607:D *380:A 8.14137e-05
5 *607:D *431:A0 8.68769e-06
6 *607:D *450:A2 1.24546e-05
7 *607:D *467:A0 0
8 *607:D *667:CLK 1.50389e-06
9 *607:D *218:56 0.00010352
10 *607:D *265:68 0.000151106
11 *607:D *334:24 2.85239e-05
12 *607:D *366:98 0.000344637
13 *607:D *366:192 9.29669e-05
14 *178:12 *369:A 0.000185434
15 *178:12 *402:A1 0
16 *178:12 *410:A1 0.000250348
17 *178:12 *450:A2 0
18 *178:12 *468:A2 0
19 *178:12 *179:26 7.72394e-06
20 *178:12 *236:32 3.63593e-05
21 *178:12 *247:28 4.69495e-06
22 *178:12 *253:58 1.91391e-05
23 *178:12 *264:30 0.000208077
24 *178:12 *274:28 1.5714e-05
25 *178:12 *307:32 2.12266e-05
26 *430:A2 *178:12 1.66626e-05
27 *446:A2 *178:12 9.74593e-05
28 *448:A2 *178:12 9.32704e-05
29 *663:DE *607:D 0.000266548
30 *667:DE *607:D 3.01606e-05
31 *19:26 *178:12 3.25641e-05
32 *64:10 *178:12 0
33 *69:26 *607:D 4.28861e-05
34 *80:234 *607:D 0.000271299
35 *80:245 *607:D 6.56339e-05
36 *80:270 *607:D 0.000590489
*RES
1 *448:Y *178:12 37.7345 
2 *178:12 *607:D 49.0476 
*END

*D_NET *179 0.027111
*CONN
*I *556:A1 I *D sky130_fd_sc_hd__o21ai_0
*I *557:A1 I *D sky130_fd_sc_hd__a21oi_1
*I *369:Y O *D sky130_fd_sc_hd__clkinv_1
*CAP
1 *556:A1 0.000498609
2 *557:A1 0.00256546
3 *369:Y 0.00320469
4 *179:26 0.00626876
5 *556:A1 *512:A 9.95922e-06
6 *556:A1 *180:111 0.000261081
7 *556:A1 *343:52 6.60675e-05
8 *556:A1 *343:67 4.55826e-05
9 *556:A1 *344:49 8.83916e-05
10 *556:A1 *344:84 9.80621e-06
11 *557:A1 *507:B1 0.000637856
12 *557:A1 *181:55 0.000997799
13 *557:A1 *282:40 0.000161521
14 *557:A1 *344:108 0.00115222
15 *557:A1 *346:109 0.000593778
16 *179:26 *402:A1 2.97962e-05
17 *179:26 *458:A0 6.88661e-06
18 *179:26 *570:CLK 0
19 *179:26 *225:34 0.000225591
20 *179:26 *245:20 0.000508442
21 *179:26 *305:32 5.26687e-05
22 *179:26 *313:52 0.000169632
23 *179:26 *346:109 0.000538345
24 *410:A2 *556:A1 0.00066859
25 *425:A2 *179:26 0.000629401
26 *448:A2 *179:26 4.15661e-05
27 *448:B1 *179:26 0.000107496
28 *527:A *557:A1 0.00015862
29 *556:A2 *556:A1 2.78277e-05
30 *557:A2 *557:A1 0.000169326
31 *6:69 *557:A1 0.00218122
32 *10:47 *557:A1 0.00164199
33 *10:68 *556:A1 1.50844e-05
34 *82:41 *556:A1 0
35 *94:26 *179:26 1.68853e-05
36 *96:34 *179:26 0.00010609
37 *103:30 *557:A1 7.53083e-05
38 *106:8 *557:A1 2.57986e-05
39 *108:26 *179:26 0
40 *111:24 *179:26 0.00020051
41 *113:8 *556:A1 1.65872e-05
42 *113:54 *179:26 6.21488e-06
43 *114:10 *557:A1 1.05601e-05
44 *138:28 *179:26 1.60578e-06
45 *140:36 *556:A1 0.00012314
46 *140:36 *557:A1 5.04829e-06
47 *143:14 *179:26 0.00124021
48 *148:28 *179:26 6.03122e-05
49 *153:22 *557:A1 3.80286e-05
50 *153:22 *179:26 3.29141e-05
51 *166:18 *557:A1 0.000944355
52 *166:18 *179:26 0.000150721
53 *166:28 *557:A1 0.000264199
54 *170:41 *179:26 3.40194e-05
55 *175:16 *557:A1 1.66771e-05
56 *178:12 *179:26 7.72394e-06
*RES
1 *369:Y *179:26 29.1009 
2 *179:26 *557:A1 30.6883 
3 *179:26 *556:A1 23.2838 
*END

*D_NET *180 0.0263664
*CONN
*I *513:A I *D sky130_fd_sc_hd__nand3_1
*I *505:A1 I *D sky130_fd_sc_hd__o21ai_0
*I *501:A I *D sky130_fd_sc_hd__nor3_1
*I *528:A1 I *D sky130_fd_sc_hd__a21oi_1
*I *506:A1 I *D sky130_fd_sc_hd__a21oi_1
*I *502:A1 I *D sky130_fd_sc_hd__o21ai_0
*I *370:Y O *D sky130_fd_sc_hd__clkinv_1
*CAP
1 *513:A 0
2 *505:A1 0.000725956
3 *501:A 2.82531e-05
4 *528:A1 0.000886987
5 *506:A1 7.82743e-05
6 *502:A1 5.08977e-06
7 *370:Y 0.00100955
8 *180:111 0.00175353
9 *180:87 0.00218452
10 *180:60 0.00274062
11 *180:41 0.000861663
12 *180:28 0.000901135
13 *180:18 0.00179065
14 *528:A1 *465:A3 1.43121e-05
15 *528:A1 *528:A2 2.47974e-05
16 *180:18 *513:B 9.35753e-06
17 *180:60 *257:38 0.000311725
18 *180:87 *574:CLK 0.000226156
19 *180:87 *181:55 0.00130084
20 *180:87 *257:38 0.000101133
21 *180:111 *654:CLK 3.18294e-07
22 *180:111 *1201:A 0.000188685
23 *180:111 *253:20 0.000158451
24 *384:B *180:18 0
25 *393:A2 *180:60 0.000138866
26 *469:A0 *180:18 0
27 *494:A *180:111 4.15661e-05
28 *496:B *180:28 0.000531734
29 *501:C *505:A1 3.65872e-05
30 *502:A2 *180:41 0.000118054
31 *502:A2 *180:60 3.37216e-05
32 *503:B *180:18 6.67641e-06
33 *505:A2 *505:A1 7.23887e-05
34 *506:B1 *506:A1 3.03484e-05
35 *522:A *505:A1 0.000462152
36 *529:A *180:60 0.000383217
37 *529:A *180:87 0.000101717
38 *530:B *501:A 2.81147e-06
39 *530:B *505:A1 4.34308e-05
40 *556:A1 *180:111 0.000261081
41 *612:D *180:87 8.06767e-05
42 *626:D *180:87 0.000128384
43 *648:DE *505:A1 1.21461e-06
44 *668:DE *528:A1 1.82679e-05
45 *689:D *528:A1 0.000234086
46 *100:6 *180:28 0.000116943
47 *107:24 *180:18 0
48 *113:10 *180:87 0.000253376
49 *113:10 *180:111 0.00084461
50 *113:54 *501:A 3.31194e-06
51 *113:54 *505:A1 3.4335e-05
52 *114:10 *180:28 0.00153986
53 *114:10 *180:41 0.00014777
54 *114:10 *180:60 2.69685e-05
55 *114:14 *506:A1 6.08467e-05
56 *116:64 *505:A1 0.000299093
57 *117:12 *180:60 0.000249468
58 *117:39 *180:60 0.000234641
59 *117:39 *180:87 0.00270986
60 *117:58 *505:A1 0
61 *118:57 *180:60 5.88834e-06
62 *119:24 *180:60 1.2657e-05
63 *119:48 *502:A1 1.10793e-05
64 *119:48 *180:28 0.000480361
65 *119:48 *180:41 4.17069e-06
66 *120:73 *180:111 0.000338808
67 *140:36 *501:A 3.20069e-06
68 *140:36 *180:60 6.39153e-06
69 *140:36 *180:111 5.19641e-05
70 *147:12 *180:111 0.000127807
71 *147:18 *180:111 2.56929e-05
72 *151:12 *180:60 9.04241e-05
73 *153:22 *180:111 0.000167464
74 *157:16 *505:A1 3.45337e-05
75 *157:48 *528:A1 1.35239e-05
76 *161:16 *180:60 3.12291e-05
77 *166:18 *501:A 4.12833e-05
78 *166:18 *505:A1 5.11321e-05
79 *166:18 *180:111 7.4489e-05
80 *167:14 *528:A1 0.000244209
*RES
1 *370:Y *180:18 30.7986 
2 *180:18 *180:28 38.4885 
3 *180:28 *502:A1 14.1278 
4 *180:28 *180:41 4.16474 
5 *180:41 *506:A1 15.0271 
6 *180:41 *180:60 22.7997 
7 *180:60 *528:A1 38.8975 
8 *180:60 *180:87 51.247 
9 *180:87 *180:111 35.7664 
10 *180:111 *501:A 14.543 
11 *180:111 *505:A1 33.2969 
12 *180:18 *513:A 9.24915 
*END

*D_NET *181 0.0248057
*CONN
*I *521:B I *D sky130_fd_sc_hd__nand3_1
*I *502:B1 I *D sky130_fd_sc_hd__o21ai_0
*I *528:A2 I *D sky130_fd_sc_hd__a21oi_1
*I *501:B I *D sky130_fd_sc_hd__nor3_1
*I *371:Y O *D sky130_fd_sc_hd__clkinv_1
*CAP
1 *521:B 0
2 *502:B1 0.000875265
3 *528:A2 7.70499e-05
4 *501:B 0.000336354
5 *371:Y 0.00175637
6 *181:63 0.00211699
7 *181:55 0.00295678
8 *181:20 0.00260638
9 *181:10 0.0022343
10 *501:B *343:67 0
11 *502:B1 *394:D1 1.32531e-05
12 *181:10 *371:A 3.50311e-06
13 *181:10 *511:A 9.82896e-06
14 *181:10 *305:32 0
15 *181:10 *313:52 0
16 *181:10 *346:109 0
17 *181:55 *553:A 0.000453882
18 *181:55 *282:40 0.000620393
19 *181:55 *328:32 6.47955e-05
20 *181:55 *346:14 3.70027e-06
21 *181:55 *346:109 0.000217993
22 *181:55 *351:37 0.00025583
23 *181:55 *351:46 0.000120544
24 *181:63 *614:CLK 0.000136381
25 *181:63 *311:28 7.88396e-07
26 *181:63 *355:53 0
27 *395:B *181:10 4.15685e-05
28 *501:C *501:B 6.73093e-05
29 *522:B *181:10 0.000193479
30 *522:B *181:20 6.28168e-05
31 *527:A *502:B1 0
32 *528:A1 *528:A2 2.47974e-05
33 *535:A *528:A2 4.31485e-06
34 *535:A *181:63 0.000101411
35 *557:A1 *181:55 0.000997799
36 *557:A2 *502:B1 0
37 *566:DE *502:B1 0
38 *614:D *181:63 7.23346e-05
39 *648:DE *181:10 0.000100554
40 *648:DE *181:20 0.000110003
41 *654:DE *501:B 2.90638e-06
42 *654:DE *181:20 1.21461e-06
43 *6:87 *181:10 0.000139609
44 *6:87 *181:20 0.000199102
45 *6:87 *181:55 0.000406311
46 *8:18 *502:B1 7.06125e-05
47 *8:18 *528:A2 2.53145e-06
48 *22:32 *502:B1 0.000509721
49 *80:39 *181:55 1.74599e-05
50 *81:249 *181:55 6.03122e-05
51 *103:30 *181:55 0.000564858
52 *106:8 *502:B1 1.43848e-05
53 *112:22 *181:10 8.77451e-05
54 *113:10 *181:55 0.00127553
55 *114:84 *181:10 0.00147065
56 *115:43 *181:63 0
57 *116:29 *181:63 0.000109131
58 *118:18 *181:20 0.000526304
59 *140:36 *502:B1 1.09551e-05
60 *152:20 *181:63 7.47581e-05
61 *155:14 *181:63 7.03764e-05
62 *155:198 *181:20 5.93062e-05
63 *158:107 *181:63 4.51176e-05
64 *167:14 *502:B1 0.000547546
65 *167:14 *181:63 0.000567723
66 *167:28 *181:63 3.38779e-05
67 *180:87 *181:55 0.00130084
*RES
1 *371:Y *181:10 49.1431 
2 *181:10 *181:20 18.7585 
3 *181:20 *501:B 14.6023 
4 *181:20 *181:55 48.4876 
5 *181:55 *181:63 35.654 
6 *181:63 *528:A2 15.6179 
7 *181:63 *502:B1 39.0425 
8 *181:10 *521:B 13.7491 
*END

*D_NET *182 0.0527946
*CONN
*I *421:C1 I *D sky130_fd_sc_hd__a221oi_1
*I *547:C1 I *D sky130_fd_sc_hd__a221oi_1
*I *409:A1 I *D sky130_fd_sc_hd__a21oi_1
*I *442:C1 I *D sky130_fd_sc_hd__a221oi_1
*I *410:A1 I *D sky130_fd_sc_hd__o21ai_0
*I *540:C1 I *D sky130_fd_sc_hd__a221oi_1
*I *480:A I *D sky130_fd_sc_hd__nand2_1
*I *418:C1 I *D sky130_fd_sc_hd__a221oi_1
*I *474:C1 I *D sky130_fd_sc_hd__a221oi_1
*I *432:C1 I *D sky130_fd_sc_hd__a221oi_1
*I *461:S0 I *D sky130_fd_sc_hd__mux4_2
*I *453:S1 I *D sky130_fd_sc_hd__mux4_2
*I *469:S0 I *D sky130_fd_sc_hd__mux4_2
*I *372:Y O *D sky130_fd_sc_hd__clkinv_1
*CAP
1 *421:C1 1.38635e-05
2 *547:C1 0.000300079
3 *409:A1 3.39167e-05
4 *442:C1 2.2366e-05
5 *410:A1 0.000951661
6 *540:C1 3.3808e-05
7 *480:A 0
8 *418:C1 0
9 *474:C1 0.000169805
10 *432:C1 0
11 *461:S0 7.89898e-05
12 *453:S1 0.000204145
13 *469:S0 0.000152269
14 *372:Y 0.00017907
15 *182:197 0.00172545
16 *182:189 0.00330059
17 *182:171 0.00300892
18 *182:167 0.00108102
19 *182:152 0.0019519
20 *182:133 0.00143367
21 *182:99 0.000195634
22 *182:90 0.00115717
23 *182:64 0.00155621
24 *182:47 0.00187538
25 *182:20 0.00238113
26 *182:14 0.00192328
27 *182:8 0.00158797
28 *409:A1 *351:420 6.3657e-05
29 *410:A1 *369:A 0.000416304
30 *410:A1 *450:A1 0.000111802
31 *410:A1 *450:A2 3.91685e-05
32 *410:A1 *450:A3 1.44611e-05
33 *410:A1 *450:S1 6.50727e-05
34 *410:A1 *467:A0 0.000202101
35 *410:A1 *185:26 0.000421848
36 *410:A1 *228:40 6.78278e-05
37 *410:A1 *236:32 3.17436e-05
38 *410:A1 *264:30 5.70817e-06
39 *410:A1 *351:403 0.000202289
40 *421:C1 *421:B2 4.56831e-05
41 *421:C1 *466:S0 0.00011818
42 *442:C1 *351:403 4.94594e-05
43 *453:S1 *301:30 0.000156955
44 *474:C1 *474:B2 2.02035e-05
45 *474:C1 *247:28 5.68515e-05
46 *474:C1 *271:26 5.56461e-05
47 *540:C1 *540:B2 4.58003e-05
48 *540:C1 *546:S 6.50727e-05
49 *547:C1 *547:B2 7.56117e-05
50 *547:C1 *220:64 6.33975e-05
51 *547:C1 *240:16 3.08993e-05
52 *547:C1 *334:54 2.00709e-05
53 *182:8 *225:34 5.5611e-06
54 *182:14 *405:A 0.000482931
55 *182:14 *449:A0 3.74542e-05
56 *182:14 *457:A1 0.000150089
57 *182:14 *481:A1 2.88548e-05
58 *182:14 *247:28 7.18395e-05
59 *182:14 *266:42 0
60 *182:14 *274:28 2.33103e-06
61 *182:14 *277:34 0.00138255
62 *182:14 *319:36 0.000293941
63 *182:20 *452:S0 0.00021986
64 *182:20 *499:A1 3.70027e-06
65 *182:20 *277:34 0.00037947
66 *182:20 *319:36 9.47718e-05
67 *182:20 *351:131 0.000217922
68 *182:47 *212:56 0.000955751
69 *182:47 *261:34 6.03237e-05
70 *182:47 *306:28 0.000615377
71 *182:47 *351:127 5.60364e-06
72 *182:47 *351:131 0.0010264
73 *182:47 *356:16 0.000786279
74 *182:47 *356:29 0.000112148
75 *182:47 *356:85 0.000173689
76 *182:64 *212:56 0.00072873
77 *182:64 *347:51 0.000335089
78 *182:64 *351:127 0.000117898
79 *182:90 *212:56 0.000133607
80 *182:90 *229:32 1.5714e-05
81 *182:90 *245:20 0.000131438
82 *182:90 *281:32 1.5714e-05
83 *182:90 *292:24 3.42041e-05
84 *182:90 *301:30 0.00049002
85 *182:90 *323:32 0.000283807
86 *182:90 *347:51 0.000118194
87 *182:90 *350:68 0.000308598
88 *182:90 *350:91 6.58016e-05
89 *182:90 *351:109 5.6489e-05
90 *182:99 *247:28 1.5756e-05
91 *182:133 *457:A1 0.000331488
92 *182:133 *479:A2 4.63413e-05
93 *182:133 *479:S0 3.19022e-05
94 *182:133 *225:34 1.23967e-05
95 *182:133 *279:62 7.13655e-06
96 *182:133 *299:60 1.82268e-05
97 *182:133 *299:90 1.93779e-05
98 *182:133 *314:26 1.33419e-05
99 *182:152 *434:S 0.000136976
100 *182:152 *465:A3 2.89704e-05
101 *182:152 *479:A2 0.000209388
102 *182:152 *479:S0 1.96456e-05
103 *182:152 *231:38 2.02035e-05
104 *182:152 *233:34 2.73131e-05
105 *182:152 *248:34 5.5123e-06
106 *182:152 *279:62 7.09666e-06
107 *182:152 *299:90 0.000356317
108 *182:152 *302:24 0.000186293
109 *182:152 *310:36 9.56324e-06
110 *182:152 *350:389 1.3044e-05
111 *182:167 *421:B2 5.04829e-06
112 *182:167 *466:A0 0.000894377
113 *182:167 *466:A1 0.000107496
114 *182:167 *466:S0 0.000153482
115 *182:167 *466:S1 6.08467e-05
116 *182:167 *231:38 0.000707202
117 *182:167 *288:40 3.95516e-05
118 *182:171 *334:54 1.64979e-05
119 *182:189 dout[3] 3.7159e-05
120 *182:189 dout[5] 0
121 *182:189 *437:A1 0.000131722
122 *182:189 *473:A1 1.94916e-05
123 *182:189 *204:12 0.000635197
124 *182:189 *211:24 3.12177e-05
125 *182:189 *228:40 0.00040651
126 *182:189 *251:60 2.26334e-05
127 *182:189 *259:28 1.43499e-05
128 *182:189 *334:54 0.000145553
129 *182:189 *350:328 0.000278461
130 *182:197 *397:A0 2.9535e-05
131 *182:197 *435:B2 0.000323157
132 *182:197 *218:32 2.81678e-06
133 *182:197 *218:56 0
134 *182:197 *234:56 1.99697e-05
135 *182:197 *263:22 2.06577e-05
136 *182:197 *333:26 9.52748e-06
137 *182:197 *351:403 0.000109678
138 *182:197 *351:420 0.000410635
139 *422:A2 *474:C1 4.87958e-05
140 *422:A2 *182:99 7.26318e-06
141 *436:B1 *182:90 1.41307e-05
142 *445:A2 *182:14 4.57583e-05
143 *446:A2 *410:A1 0.000105118
144 *453:A2 *453:S1 0.000123796
145 *453:A3 *453:S1 6.08467e-05
146 *454:B1 *182:152 0.000456337
147 *461:A3 *182:90 0.000725764
148 *469:A0 *182:20 7.49735e-06
149 *469:A2 *469:S0 0.000378977
150 *469:A2 *182:20 9.46015e-06
151 *470:A2 *182:14 0
152 *472:A2 *182:14 0
153 *472:B1 *182:14 1.273e-05
154 *480:B *182:133 1.37189e-05
155 *480:B *182:152 1.65872e-05
156 *538:A2 *182:171 0.000121621
157 *649:DE *182:152 0.000138599
158 *656:DE *461:S0 9.40648e-05
159 *5:24 *182:189 0.000707954
160 *11:38 *182:90 8.35235e-06
161 *12:26 *182:14 1.72919e-05
162 *13:62 *182:47 0.000233458
163 *14:14 *182:197 2.02035e-05
164 *35:28 *182:189 0.000571693
165 *38:16 *182:20 0.00118026
166 *48:30 *410:A1 1.2693e-05
167 *51:38 *182:152 5.38612e-06
168 *51:38 *182:167 0.000283842
169 *53:22 *410:A1 6.62441e-05
170 *54:22 *182:90 0.000419799
171 *55:20 *547:C1 4.0605e-06
172 *55:20 *182:171 7.58711e-06
173 *60:62 *182:197 0
174 *68:38 *182:14 0.000307197
175 *68:38 *182:133 0.00011587
176 *69:26 *410:A1 0.000361595
177 *70:30 *547:C1 0
178 *76:16 *182:90 0
179 *80:160 *182:152 2.85695e-05
180 *81:69 *182:47 0.000169576
181 *81:69 *182:64 0.000108798
182 *92:12 *182:171 4.5475e-05
183 *93:30 *410:A1 6.11401e-05
184 *94:26 *469:S0 0.000418061
185 *94:26 *182:20 0.000136974
186 *95:18 *182:20 0.000113345
187 *119:48 *469:S0 2.14842e-06
188 *121:8 *474:C1 2.41274e-06
189 *125:28 *182:189 7.83546e-05
190 *130:52 *182:90 0.000229097
191 *136:20 *182:152 3.81342e-05
192 *136:26 *182:171 0
193 *160:37 *182:47 1.43499e-05
194 *161:108 *182:64 1.5714e-05
195 *166:57 *469:S0 4.90167e-06
196 *169:8 *182:47 0.00051729
197 *178:12 *410:A1 0.000250348
*RES
1 *372:Y *182:8 16.1364 
2 *182:8 *182:14 20.5821 
3 *182:14 *182:20 3.64957 
4 *182:20 *469:S0 9.58636 
5 *182:20 *182:47 36.2192 
6 *182:47 *453:S1 19.681 
7 *182:47 *182:64 13.8743 
8 *182:64 *461:S0 6.85104 
9 *182:64 *182:90 46.0183 
10 *182:90 *432:C1 9.24915 
11 *182:14 *182:99 4.16265 
12 *182:99 *474:C1 19.0989 
13 *182:99 *418:C1 13.7491 
14 *182:8 *182:133 16.1618 
15 *182:133 *480:A 9.24915 
16 *182:133 *182:152 25.4989 
17 *182:152 *540:C1 15.0271 
18 *182:152 *182:167 33.1021 
19 *182:167 *182:171 8.61588 
20 *182:171 *182:189 20.9467 
21 *182:189 *182:197 22.7812 
22 *182:197 *410:A1 42.6994 
23 *182:197 *442:C1 9.97254 
24 *182:189 *409:A1 9.97254 
25 *182:171 *547:C1 21.2249 
26 *182:167 *421:C1 10.5271 
*END

*D_NET *183 0.0253107
*CONN
*I *378:A I *D sky130_fd_sc_hd__or4b_1
*I *375:A I *D sky130_fd_sc_hd__nor2_1
*I *373:X O *D sky130_fd_sc_hd__xor2_1
*CAP
1 *378:A 0.000161856
2 *375:A 0
3 *373:X 0.00520698
4 *183:40 0.00161592
5 *183:16 0.00698476
6 *378:A *186:28 0.000289625
7 *378:A *215:40 2.90636e-05
8 *378:A *357:52 0.000114523
9 *378:A *357:67 5.39635e-06
10 *183:16 *186:28 0.00405348
11 *183:16 *281:32 0.000419672
12 *183:40 *452:A3 5.01255e-05
13 *183:40 *457:S0 0.000104897
14 *183:40 *481:A1 0.000157107
15 *183:40 *481:A2 0.000349452
16 *183:40 *481:A3 6.3657e-05
17 *183:40 *481:S0 5.5232e-05
18 *183:40 *481:S1 3.76166e-05
19 *183:40 *690:CLK 9.39505e-05
20 *183:40 *210:20 0.000161028
21 *183:40 *260:26 0.000712018
22 *183:40 *262:26 7.09666e-06
23 *183:40 *287:34 4.97617e-05
24 *183:40 *350:460 8.34872e-05
25 *183:40 *350:545 6.27721e-05
26 *430:A2 *183:16 0.000339742
27 *445:A1 *183:40 0.000209952
28 *470:A2 *183:40 4.49912e-05
29 *472:A2 *183:40 4.49912e-05
30 *671:DE *378:A 5.04829e-06
31 *3:20 *378:A 3.52699e-05
32 *3:93 *378:A 0.000399354
33 *3:93 *183:40 0.000679694
34 *6:87 *183:16 0.000128306
35 *12:26 *183:40 0.000147838
36 *38:16 *378:A 2.01653e-05
37 *56:28 *183:16 2.25443e-06
38 *56:28 *183:40 8.07816e-06
39 *64:8 *183:40 1.2315e-05
40 *155:198 *183:16 0.000123752
41 *156:46 *183:16 0.00189892
42 *170:202 *183:16 0.000340521
*RES
1 *373:X *183:16 33.0147 
2 *183:16 *183:40 48.259 
3 *183:40 *375:A 9.24915 
4 *183:16 *378:A 19.6982 
*END

*D_NET *185 0.0220635
*CONN
*I *395:A I *D sky130_fd_sc_hd__nand3_1
*I *375:Y O *D sky130_fd_sc_hd__nor2_1
*CAP
1 *395:A 0
2 *375:Y 0.00484518
3 *185:26 0.00484518
4 *185:26 *369:A 0.000374797
5 *185:26 *449:A0 0.00203988
6 *185:26 *208:32 9.7886e-06
7 *185:26 *225:34 0.00513122
8 *185:26 *247:28 0.000134023
9 *185:26 *248:34 3.79718e-05
10 *185:26 *274:28 0.000276234
11 *185:26 *294:32 0.00156905
12 *185:26 *295:22 2.97235e-05
13 *185:26 *322:48 4.42238e-05
14 *410:A1 *185:26 0.000421848
15 *445:A1 *185:26 5.481e-05
16 *470:A2 *185:26 7.70344e-05
17 *11:8 *185:26 3.00073e-05
18 *11:38 *185:26 1.59052e-05
19 *58:28 *185:26 0.0018707
20 *64:8 *185:26 2.58757e-05
21 *68:38 *185:26 1.48618e-05
22 *91:16 *185:26 0.000215192
*RES
1 *375:Y *185:26 45.7877 
2 *185:26 *395:A 13.7491 
*END

*D_NET *186 0.0161309
*CONN
*I *378:C I *D sky130_fd_sc_hd__or4b_1
*I *376:X O *D sky130_fd_sc_hd__xor2_1
*CAP
1 *378:C 0
2 *376:X 0.0032256
3 *186:28 0.0032256
4 *186:28 *215:40 0.000435229
5 *186:28 *218:32 0.000124499
6 *186:28 *245:20 4.14165e-05
7 *186:28 *279:38 0.00359493
8 *186:28 *350:134 3.99086e-06
9 *186:28 *367:12 1.41976e-05
10 *186:28 *367:16 5.65463e-05
11 *378:A *186:28 0.000289625
12 *378:D_N *186:28 8.3051e-06
13 *485:B1_N *186:28 0.000511492
14 *570:DE *186:28 7.99221e-05
15 *3:20 *186:28 4.64055e-05
16 *38:16 *186:28 3.13173e-05
17 *41:16 *186:28 2.61208e-05
18 *56:28 *186:28 3.32565e-05
19 *71:24 *186:28 7.47905e-05
20 *155:198 *186:28 0.000137566
21 *170:41 *186:28 0.000116561
22 *183:16 *186:28 0.00405348
*RES
1 *376:X *186:28 41.5331 
2 *186:28 *378:C 9.24915 
*END

*D_NET *187 0.00275337
*CONN
*I *483:A1 I *D sky130_fd_sc_hd__a21oi_1
*I *480:Y O *D sky130_fd_sc_hd__nand2_1
*CAP
1 *483:A1 0.000545483
2 *480:Y 0.000545483
3 *483:A1 *429:A1 0.000336707
4 *483:A1 *457:A1 7.44969e-06
5 *483:A1 *479:S0 5.48401e-05
6 *483:A1 *215:40 1.67867e-05
7 *483:A1 *279:62 0.000387806
8 *483:A1 *358:16 4.34835e-05
9 *485:B1_N *483:A1 0.000338323
10 *23:26 *483:A1 7.3986e-05
11 *133:12 *483:A1 0.000201511
12 *142:12 *483:A1 0.000201511
*RES
1 *480:Y *483:A1 41.0969 
*END

*D_NET *188 0.0167933
*CONN
*P clk I
*I *1174:A I *D sky130_fd_sc_hd__clkbuf_16
*CAP
1 clk 0.00310235
2 *1174:A 0
3 *188:30 0.00173462
4 *188:16 0.00373946
5 *188:12 0.00510719
6 *188:16 *418:A1 2.66445e-07
7 *188:16 *422:A1 3.74313e-05
8 *188:16 *481:A3 3.93851e-06
9 *188:16 *287:34 4.84169e-06
10 *188:16 *350:466 1.15345e-05
11 *188:16 *350:468 6.70217e-05
12 *188:16 *350:472 0.000112152
13 *188:30 *449:S0 5.06177e-05
14 *188:30 *481:A3 3.25271e-06
15 *188:30 *234:32 2.28591e-05
16 *188:30 *241:48 1.58108e-05
17 *188:30 *287:24 0.000280139
18 *188:30 *287:34 0.00209774
19 *188:30 *298:30 1.75355e-05
20 *188:30 *299:60 3.18715e-05
21 *188:30 *310:36 3.80079e-05
22 *487:A2 *188:16 6.52521e-05
23 *578:D *188:30 1.10886e-06
24 *578:DE *188:30 3.37996e-05
25 *655:DE *188:30 3.64208e-05
26 *690:D *188:30 0
27 *22:10 *188:16 0
28 *155:93 *188:30 0.000165587
29 *167:117 *188:30 1.24616e-05
*RES
1 clk *188:12 15.248 
2 *188:12 *188:16 48.8654 
3 *188:16 *188:30 48.0227 
4 *188:30 *1174:A 13.7491 
*END

*D_NET *363 0.00462528
*CONN
*I *575:CLK I *D sky130_fd_sc_hd__edfxtp_1
*I *562:CLK I *D sky130_fd_sc_hd__edfxtp_1
*I *682:CLK I *D sky130_fd_sc_hd__edfxtp_1
*I *654:CLK I *D sky130_fd_sc_hd__edfxtp_1
*I *652:CLK I *D sky130_fd_sc_hd__edfxtp_1
*I *653:CLK I *D sky130_fd_sc_hd__edfxtp_1
*I *1201:A I *D sky130_fd_sc_hd__inv_8
*I *1185:X O *D sky130_fd_sc_hd__clkbuf_16
*CAP
1 *575:CLK 0.000445167
2 *562:CLK 9.38985e-05
3 *682:CLK 0
4 *654:CLK 0.000199303
5 *652:CLK 0.000257565
6 *653:CLK 0
7 *1201:A 0.000169476
8 *1185:X 0
9 *363:74 0.000659049
10 *363:63 0.000175541
11 *363:32 0.000580886
12 *363:19 0.000193799
13 *363:4 0.0001837
14 *1201:A *1204:A 4.2372e-05
15 *363:63 *1204:A 2.57847e-05
16 *373:A *652:CLK 1.82679e-05
17 *494:A *654:CLK 8.02893e-06
18 *575:DE *575:CLK 2.90638e-06
19 *81:262 *652:CLK 5.6516e-06
20 *113:54 *654:CLK 0
21 *118:20 *562:CLK 0.000144531
22 *118:20 *363:74 0.000230647
23 *140:36 *654:CLK 4.20184e-06
24 *147:12 *363:32 3.08636e-06
25 *147:18 *1201:A 0.000181732
26 *150:14 *1201:A 3.82228e-05
27 *157:20 *654:CLK 0.00018513
28 *157:20 *363:32 0.000140457
29 *168:10 *363:32 0.000117018
30 *180:111 *654:CLK 3.18294e-07
31 *180:111 *1201:A 0.000188685
32 *249:28 *562:CLK 2.98322e-05
33 *253:20 *562:CLK 6.52454e-05
34 *253:20 *363:63 2.41274e-06
35 *253:20 *363:74 0.000232361
*RES
1 *1185:X *363:4 9.24915 
2 *363:4 *1201:A 23.0201 
3 *363:4 *363:19 1.278 
4 *363:19 *653:CLK 9.24915 
5 *363:19 *363:32 8.46461 
6 *363:32 *652:CLK 18.3789 
7 *363:32 *654:CLK 18.5612 
8 *1201:A *363:63 10.5271 
9 *363:63 *682:CLK 9.24915 
10 *363:63 *363:74 9.5469 
11 *363:74 *562:CLK 17.135 
12 *363:74 *575:CLK 19.898 
*END

*D_NET *364 0.00769922
*CONN
*I *674:CLK I *D sky130_fd_sc_hd__edfxtp_1
*I *594:CLK I *D sky130_fd_sc_hd__edfxtp_1
*I *681:CLK I *D sky130_fd_sc_hd__edfxtp_1
*I *629:CLK I *D sky130_fd_sc_hd__edfxtp_1
*I *570:CLK I *D sky130_fd_sc_hd__edfxtp_1
*I *600:CLK I *D sky130_fd_sc_hd__edfxtp_1
*I *645:CLK I *D sky130_fd_sc_hd__edfxtp_1
*I *648:CLK I *D sky130_fd_sc_hd__edfxtp_1
*I *1202:A I *D sky130_fd_sc_hd__inv_6
*I *1186:X O *D sky130_fd_sc_hd__clkbuf_16
*CAP
1 *674:CLK 3.29888e-05
2 *594:CLK 0
3 *681:CLK 0
4 *629:CLK 0.000160904
5 *570:CLK 0.000816476
6 *600:CLK 0.000145617
7 *645:CLK 0.000107901
8 *648:CLK 7.05588e-05
9 *1202:A 2.24336e-05
10 *1186:X 0.000318752
11 *364:96 0.000319367
12 *364:92 0.000215845
13 *364:61 0.00109789
14 *364:28 0.000351915
15 *364:12 0.000118021
16 *364:8 0.000185159
17 *458:A0 *645:CLK 5.04829e-06
18 *458:A0 *364:8 2.02035e-05
19 *458:A0 *364:28 0.000120886
20 *458:S0 *570:CLK 2.08059e-05
21 *468:A3 *648:CLK 7.12965e-05
22 *468:A3 *364:12 2.16355e-05
23 *468:S0 *674:CLK 2.16355e-05
24 *495:A1 *364:8 1.07248e-05
25 *495:A1 *364:61 3.82406e-05
26 *510:A2 *600:CLK 7.08059e-05
27 *570:D *570:CLK 2.09695e-05
28 *570:DE *570:CLK 0.000192537
29 *648:DE *648:CLK 7.63448e-05
30 *648:DE *364:12 2.16355e-05
31 *6:87 *570:CLK 7.91258e-05
32 *41:16 *629:CLK 0.00032409
33 *41:16 *364:96 0.000353494
34 *76:8 *645:CLK 2.16355e-05
35 *76:16 *629:CLK 0.000320549
36 *76:16 *364:61 0.000355636
37 *76:16 *364:96 0.000342871
38 *80:58 *600:CLK 7.92757e-06
39 *82:41 *570:CLK 1.92336e-05
40 *82:66 *570:CLK 0.00010503
41 *82:66 *364:92 1.18914e-05
42 *101:14 *645:CLK 2.41274e-06
43 *108:26 *570:CLK 0.000267471
44 *111:24 *600:CLK 7.00544e-05
45 *111:24 *364:8 3.91465e-05
46 *111:24 *364:28 1.84545e-05
47 *112:22 *600:CLK 4.69806e-05
48 *153:22 *570:CLK 5.78333e-05
49 *155:198 *570:CLK 3.88358e-05
50 *170:14 *600:CLK 9.13978e-05
51 *179:26 *570:CLK 0
52 *218:32 *570:CLK 4.45999e-05
53 *218:32 *364:61 1.58588e-05
54 *218:32 *364:92 1.33419e-05
55 *344:84 *570:CLK 7.08723e-06
56 *350:106 *364:61 0
57 *351:46 *570:CLK 8.13812e-06
58 *351:210 *600:CLK 2.69795e-05
59 *351:210 *645:CLK 6.08467e-05
60 *351:210 *364:8 0.000104783
61 *351:210 *364:28 0.00016692
62 *362:18 *570:CLK 0
*RES
1 *1186:X *364:8 15.9964 
2 *364:8 *364:12 5.2234 
3 *364:12 *1202:A 9.82786 
4 *364:12 *648:CLK 11.6364 
5 *364:8 *364:28 3.493 
6 *364:28 *645:CLK 16.1364 
7 *364:28 *600:CLK 18.6836 
8 *1186:X *364:61 25.0642 
9 *364:61 *570:CLK 37.116 
10 *364:61 *364:92 1.278 
11 *364:92 *364:96 11.315 
12 *364:96 *629:CLK 20.1489 
13 *364:96 *681:CLK 13.7491 
14 *364:92 *594:CLK 9.24915 
15 *1186:X *674:CLK 19.2217 
*END

*D_NET *365 0.0126444
*CONN
*I *632:CLK I *D sky130_fd_sc_hd__edfxtp_1
*I *567:CLK I *D sky130_fd_sc_hd__edfxtp_1
*I *658:CLK I *D sky130_fd_sc_hd__edfxtp_1
*I *661:CLK I *D sky130_fd_sc_hd__edfxtp_1
*I *635:CLK I *D sky130_fd_sc_hd__edfxtp_1
*I *583:CLK I *D sky130_fd_sc_hd__edfxtp_1
*I *643:CLK I *D sky130_fd_sc_hd__edfxtp_1
*I *1203:A I *D sky130_fd_sc_hd__clkinvlp_4
*I *590:CLK I *D sky130_fd_sc_hd__edfxtp_1
*I *659:CLK I *D sky130_fd_sc_hd__edfxtp_1
*I *627:CLK I *D sky130_fd_sc_hd__edfxtp_1
*I *1187:X O *D sky130_fd_sc_hd__clkbuf_16
*CAP
1 *632:CLK 0.000403061
2 *567:CLK 0
3 *658:CLK 2.64443e-05
4 *661:CLK 9.72747e-05
5 *635:CLK 0.00019577
6 *583:CLK 0
7 *643:CLK 9.21559e-05
8 *1203:A 0.000275052
9 *590:CLK 0.000192747
10 *659:CLK 0.000253826
11 *627:CLK 0.000188311
12 *1187:X 0.000448252
13 *365:139 0.000603101
14 *365:75 0.000557044
15 *365:69 0.000382504
16 *365:63 0.000599941
17 *365:48 0.00040425
18 *365:37 0.000469729
19 *365:35 0.00080414
20 *365:29 0.000532563
21 *365:27 0.000470134
22 *365:10 0.0008915
23 *441:S *590:CLK 0.000111802
24 *461:A0 *365:75 2.27901e-06
25 *461:A1 *661:CLK 2.57986e-05
26 *461:A3 *1203:A 1.82679e-05
27 *539:A0 *643:CLK 2.19049e-05
28 *539:A0 *365:75 4.9e-05
29 *539:A1 *365:75 8.2476e-06
30 *539:S *635:CLK 1.98461e-05
31 *539:S *1203:A 6.08467e-05
32 *539:S *365:69 4.31603e-06
33 *539:S *365:75 0.000174109
34 *583:DE *365:69 9.27913e-05
35 *658:DE *365:27 4.00149e-05
36 *658:DE *365:35 4.82334e-05
37 *659:D *659:CLK 2.70033e-05
38 *659:DE *659:CLK 1.02963e-05
39 *661:DE *661:CLK 2.16355e-05
40 *667:D *365:10 1.21461e-06
41 *11:38 *643:CLK 0.000103452
42 *11:38 *365:75 5.20256e-05
43 *60:42 *590:CLK 0.00014399
44 *87:30 *627:CLK 0.000181155
45 *87:30 *365:10 6.20469e-05
46 *125:28 *365:75 0.000149866
47 *130:52 *632:CLK 2.54713e-05
48 *155:93 *627:CLK 6.46559e-05
49 *155:93 *365:10 3.65671e-05
50 *156:77 *632:CLK 0.000107245
51 *156:77 *365:10 8.79014e-06
52 *157:131 *632:CLK 0.000231264
53 *158:39 *632:CLK 4.61799e-05
54 *158:39 *365:139 3.5534e-06
55 *158:53 *365:139 0.0001149
56 *160:142 *632:CLK 0.000107496
57 *162:87 *661:CLK 3.64673e-05
58 *162:87 *365:63 0
59 *163:85 *661:CLK 5.01835e-05
60 *163:85 *365:63 0.00010716
61 *163:136 *635:CLK 0.000221375
62 *163:136 *365:63 9.80784e-05
63 *170:107 *590:CLK 0.000229359
64 *170:107 *365:63 1.28587e-05
65 *219:38 *590:CLK 2.91549e-05
66 *219:38 *661:CLK 1.04352e-05
67 *219:38 *365:63 0.000100163
68 *221:26 *365:10 0.000261787
69 *229:32 *661:CLK 5.46889e-05
70 *235:24 *590:CLK 2.07503e-05
71 *267:28 *590:CLK 2.29454e-05
72 *268:30 *632:CLK 6.76621e-05
73 *268:30 *365:139 0.000166874
74 *283:32 *643:CLK 6.08467e-05
75 *287:24 *365:10 0.000372679
76 *289:20 *635:CLK 3.99086e-06
77 *289:20 *1203:A 1.27749e-05
78 *289:20 *365:35 0.00013082
79 *297:46 *643:CLK 1.03403e-05
80 *327:36 *632:CLK 3.55968e-05
81 *332:32 *643:CLK 5.49916e-05
82 *336:159 *635:CLK 0.000220951
83 *336:159 *365:63 0.000106696
84 *340:50 *632:CLK 5.98628e-06
85 *347:134 *365:35 6.44224e-05
86 *347:134 *365:37 1.03403e-05
*RES
1 *1187:X *365:10 25.7328 
2 *365:10 *627:CLK 18.9542 
3 *365:10 *365:27 7.99641 
4 *365:27 *365:29 0.578717 
5 *365:29 *365:35 9.23536 
6 *365:35 *365:37 2.94181 
7 *365:37 *659:CLK 13.1796 
8 *365:37 *365:48 4.5 
9 *365:48 *590:CLK 20.3205 
10 *365:48 *365:63 5.88681 
11 *365:63 *365:69 8.57513 
12 *365:69 *365:75 9.96216 
13 *365:75 *1203:A 17.8243 
14 *365:75 *643:CLK 16.7198 
15 *365:69 *583:CLK 9.24915 
16 *365:63 *635:CLK 19.79 
17 *365:35 *661:CLK 21.2198 
18 *365:29 *658:CLK 9.82786 
19 *365:27 *365:139 10.0693 
20 *365:139 *567:CLK 13.7491 
21 *365:139 *632:CLK 27.1938 
*END

*D_NET *366 0.0206561
*CONN
*I *610:CLK I *D sky130_fd_sc_hd__edfxtp_1
*I *564:CLK I *D sky130_fd_sc_hd__edfxtp_1
*I *624:CLK I *D sky130_fd_sc_hd__edfxtp_1
*I *678:CLK I *D sky130_fd_sc_hd__edfxtp_1
*I *639:CLK I *D sky130_fd_sc_hd__edfxtp_1
*I *580:CLK I *D sky130_fd_sc_hd__edfxtp_1
*I *640:CLK I *D sky130_fd_sc_hd__edfxtp_1
*I *667:CLK I *D sky130_fd_sc_hd__edfxtp_1
*I *607:CLK I *D sky130_fd_sc_hd__dfxtp_1
*I *625:CLK I *D sky130_fd_sc_hd__dfxtp_1
*I *669:CLK I *D sky130_fd_sc_hd__dfxtp_1
*I *637:CLK I *D sky130_fd_sc_hd__edfxtp_1
*I *609:CLK I *D sky130_fd_sc_hd__dfxtp_1
*I *560:CLK I *D sky130_fd_sc_hd__edfxtp_1
*I *605:CLK I *D sky130_fd_sc_hd__edfxtp_1
*I *1188:X O *D sky130_fd_sc_hd__clkbuf_16
*CAP
1 *610:CLK 0
2 *564:CLK 3.54328e-05
3 *624:CLK 0
4 *678:CLK 0
5 *639:CLK 0
6 *580:CLK 9.70909e-05
7 *640:CLK 0.000365002
8 *667:CLK 0.00029787
9 *607:CLK 0
10 *625:CLK 0.000385204
11 *669:CLK 0.000127863
12 *637:CLK 0
13 *609:CLK 0.000632171
14 *560:CLK 0.000414817
15 *605:CLK 0.000113979
16 *1188:X 0.000505839
17 *366:192 0.000830861
18 *366:159 0.000666638
19 *366:157 0.000420244
20 *366:147 0.000572779
21 *366:110 0.00094995
22 *366:98 0.000779297
23 *366:88 0.000598588
24 *366:79 0.00017282
25 *366:59 0.00104699
26 *366:57 0.00017076
27 *366:53 0.000508787
28 *366:51 0.000690644
29 *366:43 0.000529533
30 *366:26 0.000901347
31 *431:A0 *366:98 8.38013e-06
32 *435:B2 *366:192 1.86819e-05
33 *437:A0 *366:26 0.000312317
34 *442:A1 *625:CLK 0.000138205
35 *442:B2 *625:CLK 0.000203604
36 *451:S0 *366:26 5.11321e-05
37 *457:A2 *366:192 0.000104754
38 *468:A2 *640:CLK 1.44914e-05
39 *473:A0 *366:110 0
40 *560:DE *560:CLK 4.53574e-05
41 *560:DE *609:CLK 0.000108275
42 *564:DE *564:CLK 0.000110306
43 *564:DE *366:53 0.000249203
44 *580:DE *580:CLK 8.93134e-05
45 *607:D *667:CLK 1.50389e-06
46 *607:D *366:98 0.000344637
47 *607:D *366:192 9.29669e-05
48 *624:DE *366:53 8.49282e-05
49 *632:D *366:157 0.000376498
50 *640:DE *640:CLK 0.000209388
51 *663:DE *667:CLK 4.53469e-05
52 *663:DE *366:157 0.000212198
53 *12:30 *366:192 2.27135e-05
54 *13:96 *366:192 4.907e-05
55 *31:58 *605:CLK 1.88014e-05
56 *51:36 *366:26 7.22263e-05
57 *51:38 *366:51 0.000302686
58 *60:42 *667:CLK 0.000199873
59 *64:10 *366:57 0.000226049
60 *64:10 *366:79 0.000124259
61 *64:10 *366:88 0.000155519
62 *64:10 *366:147 0.000188649
63 *80:270 *366:192 1.91391e-05
64 *88:32 *366:26 6.73728e-05
65 *110:24 *605:CLK 9.66809e-05
66 *110:24 *366:26 0.000229483
67 *155:99 *580:CLK 6.98337e-06
68 *155:99 *640:CLK 0.000218964
69 *157:131 *366:43 4.62299e-05
70 *157:131 *366:51 0.000107496
71 *157:150 *605:CLK 0.000249989
72 *157:150 *366:26 6.85329e-05
73 *157:150 *366:43 1.33562e-05
74 *161:162 *560:CLK 4.28856e-07
75 *167:117 *366:57 0.000116813
76 *169:81 *366:192 0
77 *172:18 *669:CLK 0.000134938
78 *201:18 *366:26 0.000239955
79 *208:32 *366:147 1.0713e-05
80 *211:24 *366:26 5.45571e-05
81 *213:20 *366:53 0.00010626
82 *218:56 *625:CLK 0.000334399
83 *218:56 *366:110 0.000185002
84 *221:26 *366:57 8.18575e-05
85 *221:26 *366:79 0.000131356
86 *221:26 *366:88 9.12416e-06
87 *237:22 *640:CLK 3.08993e-05
88 *242:18 *366:88 0
89 *242:18 *366:147 0
90 *251:60 *366:110 2.77564e-05
91 *263:22 *625:CLK 1.21729e-05
92 *263:22 *669:CLK 0.000112593
93 *266:28 *366:51 0.000281458
94 *269:20 *605:CLK 5.1493e-06
95 *269:20 *366:26 2.15251e-05
96 *270:24 *564:CLK 5.97905e-06
97 *270:24 *366:53 0.00011445
98 *277:34 *625:CLK 8.89637e-05
99 *290:22 *366:53 5.04829e-06
100 *291:26 *366:110 0.000123386
101 *296:28 *366:98 1.84848e-05
102 *318:16 *366:26 2.16355e-05
103 *321:46 *667:CLK 0
104 *333:26 *609:CLK 2.01098e-05
105 *333:26 *625:CLK 0.000395918
106 *333:26 *366:51 2.28104e-05
107 *333:26 *366:110 0.000198721
108 *334:24 *640:CLK 3.47376e-05
109 *334:54 *580:CLK 5.89035e-05
110 *334:54 *640:CLK 6.23028e-05
111 *340:50 *366:147 8.36586e-06
112 *340:50 *366:157 0.000443435
113 *351:403 *625:CLK 1.58571e-05
*RES
1 *1188:X *366:26 28.9911 
2 *366:26 *605:CLK 17.2744 
3 *366:26 *366:43 8.98505 
4 *366:43 *366:51 16.6778 
5 *366:51 *366:53 12.3701 
6 *366:53 *366:57 8.82351 
7 *366:57 *366:59 4.5 
8 *366:59 *560:CLK 15.398 
9 *366:59 *609:CLK 18.7256 
10 *366:57 *366:79 2.6625 
11 *366:79 *637:CLK 13.7491 
12 *366:79 *366:88 3.07775 
13 *366:88 *366:98 13.8077 
14 *366:98 *366:110 23.0126 
15 *366:110 *669:CLK 17.2697 
16 *366:110 *625:CLK 27.7559 
17 *366:98 *607:CLK 9.24915 
18 *366:88 *366:147 8.40826 
19 *366:147 *366:157 22.2589 
20 *366:157 *366:159 4.5 
21 *366:159 *667:CLK 22.0298 
22 *366:159 *366:192 15.5806 
23 *366:192 *640:CLK 28.735 
24 *366:192 *580:CLK 12.191 
25 *366:157 *639:CLK 9.24915 
26 *366:147 *678:CLK 9.24915 
27 *366:53 *624:CLK 9.24915 
28 *366:51 *564:CLK 10.5271 
29 *366:43 *610:CLK 9.24915 
*END

*D_NET *367 0.0145845
*CONN
*I *677:CLK I *D sky130_fd_sc_hd__edfxtp_1
*I *673:CLK I *D sky130_fd_sc_hd__edfxtp_1
*I *676:CLK I *D sky130_fd_sc_hd__edfxtp_1
*I *558:CLK I *D sky130_fd_sc_hd__edfxtp_1
*I *638:CLK I *D sky130_fd_sc_hd__edfxtp_1
*I *1204:A I *D sky130_fd_sc_hd__inv_6
*I *672:CLK I *D sky130_fd_sc_hd__edfxtp_1
*I *685:CLK I *D sky130_fd_sc_hd__edfxtp_1
*I *1189:X O *D sky130_fd_sc_hd__clkbuf_16
*CAP
1 *677:CLK 2.23074e-05
2 *673:CLK 0
3 *676:CLK 0
4 *558:CLK 0.00081005
5 *638:CLK 2.86138e-05
6 *1204:A 0.00130007
7 *672:CLK 0
8 *685:CLK 0.00038953
9 *1189:X 0.00154427
10 *367:40 0.000496547
11 *367:38 0.00154466
12 *367:34 0.000291655
13 *367:26 0.00101792
14 *367:22 0.000337398
15 *367:16 0.000484493
16 *367:12 0.00179608
17 *404:A0 *638:CLK 1.15389e-05
18 *404:A0 *367:34 4.33789e-07
19 *404:A0 *367:38 6.79126e-05
20 *404:S *685:CLK 0
21 *404:S *367:38 6.11872e-05
22 *417:A1 *367:22 0.000110297
23 *417:S *367:22 6.08467e-05
24 *433:B1 *367:16 3.33024e-05
25 *433:B1 *367:22 1.07248e-05
26 *594:DE *367:16 0.000151975
27 *594:DE *367:22 0.000165594
28 *594:DE *367:26 0.000125512
29 *594:DE *367:34 0.000179424
30 *645:D *367:16 1.80208e-05
31 *676:DE *1204:A 0.000552193
32 *677:DE *367:12 0.000140087
33 *681:DE *367:22 0.000131356
34 *681:DE *367:26 0.000118496
35 *681:DE *367:34 0.000186252
36 *1173:A *685:CLK 7.92757e-06
37 *1201:A *1204:A 4.2372e-05
38 *11:140 *367:12 5.70107e-05
39 *41:16 *685:CLK 0.000199432
40 *41:16 *1204:A 7.58772e-05
41 *41:16 *367:16 5.78625e-05
42 *41:16 *367:22 6.79431e-05
43 *41:16 *367:40 0.000195856
44 *76:16 *685:CLK 0.000137784
45 *76:16 *1204:A 6.8735e-05
46 *76:16 *367:40 0.000188743
47 *81:249 *1204:A 8.5176e-06
48 *150:14 *1204:A 9.99867e-06
49 *155:198 *1204:A 7.08723e-06
50 *155:198 *367:16 0.000138787
51 *156:46 *1204:A 0
52 *156:58 *558:CLK 6.12159e-05
53 *169:71 *638:CLK 0
54 *169:71 *367:34 0
55 *186:28 *367:12 1.41976e-05
56 *186:28 *367:16 5.65463e-05
57 *211:24 *558:CLK 5.56992e-06
58 *228:40 *1204:A 0.000244643
59 *253:20 *1204:A 1.5714e-05
60 *286:18 *1204:A 9.71439e-06
61 *326:14 *367:12 2.28368e-05
62 *328:32 *1204:A 0.000471045
63 *328:52 *558:CLK 1.57779e-05
64 *336:159 *685:CLK 3.99086e-06
65 *336:161 *685:CLK 3.99287e-05
66 *350:57 *1204:A 0.000136773
67 *350:134 *677:CLK 5.04829e-06
68 *350:134 *367:12 3.01683e-06
69 *363:63 *1204:A 2.57847e-05
*RES
1 *1189:X *367:12 32.3737 
2 *367:12 *367:16 11.315 
3 *367:16 *367:22 12.1778 
4 *367:22 *367:26 7.1625 
5 *367:26 *367:34 9.01781 
6 *367:34 *367:38 7.71911 
7 *367:38 *367:40 3.90826 
8 *367:40 *685:CLK 21.4513 
9 *367:40 *672:CLK 13.7491 
10 *367:38 *1204:A 31.1553 
11 *367:34 *638:CLK 10.2137 
12 *367:26 *558:CLK 25.444 
13 *367:22 *676:CLK 9.24915 
14 *367:16 *673:CLK 13.7491 
15 *367:12 *677:CLK 9.97254 
*END

*D_NET *368 0.0115814
*CONN
*I *579:CLK I *D sky130_fd_sc_hd__edfxtp_1
*I *582:CLK I *D sky130_fd_sc_hd__edfxtp_1
*I *644:CLK I *D sky130_fd_sc_hd__edfxtp_1
*I *598:CLK I *D sky130_fd_sc_hd__edfxtp_1
*I *601:CLK I *D sky130_fd_sc_hd__edfxtp_1
*I *628:CLK I *D sky130_fd_sc_hd__edfxtp_1
*I *581:CLK I *D sky130_fd_sc_hd__edfxtp_1
*I *657:CLK I *D sky130_fd_sc_hd__edfxtp_1
*I *663:CLK I *D sky130_fd_sc_hd__edfxtp_1
*I *1205:A I *D sky130_fd_sc_hd__clkinv_4
*I *1190:X O *D sky130_fd_sc_hd__clkbuf_16
*CAP
1 *579:CLK 3.84674e-05
2 *582:CLK 0
3 *644:CLK 9.40371e-05
4 *598:CLK 3.43265e-05
5 *601:CLK 0
6 *628:CLK 2.61329e-05
7 *581:CLK 0.000351836
8 *657:CLK 0.000130801
9 *663:CLK 0.00035296
10 *1205:A 0.00030553
11 *1190:X 0.00021971
12 *368:116 0.000216386
13 *368:107 0.00031001
14 *368:99 0.000357867
15 *368:65 0.000377969
16 *368:35 0.000703035
17 *368:31 0.000362055
18 *368:29 0.00102785
19 *368:25 0.00129569
20 *368:10 0.00103327
21 *410:A2 *598:CLK 0.000114594
22 *410:A2 *644:CLK 3.04443e-05
23 *410:A2 *368:116 0.000143899
24 *410:B1 *1205:A 7.09666e-06
25 *410:B1 *368:10 0.000235147
26 *432:A1 *598:CLK 0.000161243
27 *467:A0 *368:29 8.64478e-05
28 *467:A3 *1205:A 0.000184028
29 *539:A1 *581:CLK 1.33419e-05
30 *558:D *368:25 3.46584e-05
31 *558:D *368:29 0.000171429
32 *579:DE *368:25 6.67658e-06
33 *581:DE *581:CLK 1.98189e-05
34 *582:DE *368:107 1.65872e-05
35 *598:D *644:CLK 1.38877e-05
36 *644:DE *598:CLK 7.92757e-06
37 *644:DE *644:CLK 9.34919e-05
38 *20:20 *368:10 1.5714e-05
39 *21:18 *581:CLK 0.000235444
40 *21:18 *628:CLK 4.66492e-05
41 *27:16 *1205:A 8.67374e-05
42 *48:30 *1205:A 2.69604e-05
43 *48:30 *368:10 0.000156899
44 *60:62 *1205:A 0.00016553
45 *156:77 *663:CLK 0
46 *156:77 *368:31 0.000157754
47 *156:77 *368:35 0.000255536
48 *158:39 *581:CLK 0.000174658
49 *158:39 *644:CLK 2.31895e-05
50 *158:39 *663:CLK 0.000201476
51 *160:142 *663:CLK 6.36477e-05
52 *212:28 *663:CLK 2.1387e-05
53 *216:46 *368:10 7.86847e-05
54 *238:22 *368:31 0.000100836
55 *238:22 *368:35 8.38074e-05
56 *238:22 *368:99 3.55732e-05
57 *238:22 *368:107 5.50873e-05
58 *238:22 *368:116 1.29445e-05
59 *239:16 *644:CLK 0.000118329
60 *239:16 *368:107 0.000173184
61 *239:16 *368:116 0.000170126
62 *275:36 *663:CLK 2.16355e-05
63 *283:32 *663:CLK 3.62221e-05
64 *294:32 *368:107 1.9101e-05
65 *300:22 *368:31 1.87713e-05
66 *300:22 *368:99 2.12522e-05
67 *309:32 *657:CLK 1.41382e-06
68 *309:32 *663:CLK 4.96104e-05
69 *327:58 *581:CLK 0.000178256
70 *327:58 *368:107 0.000161252
71 *334:24 *368:107 3.50623e-05
*RES
1 *1190:X *368:10 19.7659 
2 *368:10 *1205:A 22.5445 
3 *368:10 *368:25 11.324 
4 *368:25 *368:29 15.7609 
5 *368:29 *368:31 4.73876 
6 *368:31 *368:35 10.0693 
7 *368:35 *663:CLK 26.587 
8 *368:35 *657:CLK 11.5158 
9 *368:31 *368:65 4.5 
10 *368:65 *581:CLK 28.3733 
11 *368:65 *628:CLK 9.97254 
12 *368:29 *368:99 7.65103 
13 *368:99 *368:107 11.113 
14 *368:107 *601:CLK 13.7491 
15 *368:107 *368:116 3.493 
16 *368:116 *598:CLK 15.5817 
17 *368:116 *644:CLK 17.2421 
18 *368:99 *582:CLK 9.24915 
19 *368:25 *579:CLK 10.2378 
*END

*D_NET *354 0.00937035
*CONN
*I *566:CLK I *D sky130_fd_sc_hd__edfxtp_1
*I *699:CLK I *D sky130_fd_sc_hd__edfxtp_1
*I *691:CLK I *D sky130_fd_sc_hd__edfxtp_1
*I *1192:A I *D sky130_fd_sc_hd__inv_8
*I *670:CLK I *D sky130_fd_sc_hd__edfxtp_1
*I *641:CLK I *D sky130_fd_sc_hd__edfxtp_1
*I *647:CLK I *D sky130_fd_sc_hd__edfxtp_1
*I *1176:X O *D sky130_fd_sc_hd__clkbuf_16
*CAP
1 *566:CLK 0
2 *699:CLK 0.000556394
3 *691:CLK 0.000936422
4 *1192:A 4.95211e-05
5 *670:CLK 0
6 *641:CLK 0
7 *647:CLK 0.000280273
8 *1176:X 0.000635975
9 *354:81 0.000647043
10 *354:53 0.00103401
11 *354:49 0.000254896
12 *354:40 0.000344178
13 *354:12 0.000280273
14 *354:10 0.000863977
15 *647:CLK *357:14 6.50586e-05
16 *691:CLK *357:35 2.77419e-05
17 *354:10 *357:14 3.20069e-06
18 *354:40 *357:14 6.65296e-05
19 *354:40 *357:27 5.45074e-05
20 *354:49 *357:35 2.43314e-05
21 *354:53 *357:35 6.08467e-05
22 *354:81 *357:35 0.000164863
23 *379:B *691:CLK 1.9101e-05
24 *379:B *354:40 0.000180619
25 *379:B *354:49 7.09119e-05
26 *481:A2 *354:40 1.85244e-05
27 *496:B *354:10 0.000243918
28 *503:B *647:CLK 6.78059e-05
29 *503:B *691:CLK 8.23875e-05
30 *503:B *354:10 6.88655e-05
31 *503:B *354:40 3.76855e-05
32 *527:A *1192:A 4.31603e-06
33 *566:DE *699:CLK 0.00015465
34 *641:DE *647:CLK 0.000113968
35 *647:DE *354:10 5.00906e-05
36 *670:DE *691:CLK 0.000146056
37 *691:DE *691:CLK 3.37073e-06
38 *13:62 *699:CLK 0.000363443
39 *71:24 *354:40 2.18821e-05
40 *71:24 *354:49 0.000155429
41 *71:24 *354:81 0.00017196
42 *95:18 *647:CLK 4.00824e-05
43 *106:8 *1192:A 1.41976e-05
44 *149:22 *647:CLK 0.000195764
45 *163:14 *1192:A 1.65872e-05
46 *163:14 *354:53 1.37669e-05
47 *166:59 *647:CLK 0.000154145
48 *169:8 *699:CLK 0.000356319
49 *215:40 *699:CLK 2.99291e-05
50 *260:26 *699:CLK 1.43041e-05
51 *282:40 *691:CLK 0.00015758
52 *343:167 *691:CLK 2.1203e-06
53 *346:62 *647:CLK 5.05252e-05
*RES
1 *1176:X *354:10 27.1095 
2 *354:10 *354:12 4.5 
3 *354:12 *647:CLK 27.3051 
4 *354:12 *641:CLK 9.24915 
5 *354:10 *354:40 6.81502 
6 *354:40 *670:CLK 13.7491 
7 *354:40 *354:49 3.493 
8 *354:49 *354:53 5.778 
9 *354:53 *1192:A 10.5513 
10 *354:53 *691:CLK 33.8551 
11 *354:49 *354:81 7.993 
12 *354:81 *699:CLK 34.2754 
13 *354:81 *566:CLK 9.24915 
*END

*D_NET *355 0.0137958
*CONN
*I *698:CLK I *D sky130_fd_sc_hd__edfxtp_1
*I *563:CLK I *D sky130_fd_sc_hd__edfxtp_1
*I *568:CLK I *D sky130_fd_sc_hd__edfxtp_1
*I *1193:A I *D sky130_fd_sc_hd__clkinvlp_4
*I *626:CLK I *D sky130_fd_sc_hd__dfxtp_1
*I *576:CLK I *D sky130_fd_sc_hd__edfxtp_1
*I *614:CLK I *D sky130_fd_sc_hd__dfxtp_1
*I *577:CLK I *D sky130_fd_sc_hd__edfxtp_1
*I *606:CLK I *D sky130_fd_sc_hd__edfxtp_1
*I *668:CLK I *D sky130_fd_sc_hd__edfxtp_1
*I *688:CLK I *D sky130_fd_sc_hd__edfxtp_1
*I *1177:X O *D sky130_fd_sc_hd__clkbuf_16
*CAP
1 *698:CLK 0
2 *563:CLK 0.000141675
3 *568:CLK 0.000499065
4 *1193:A 7.18644e-05
5 *626:CLK 0.000444106
6 *576:CLK 0.000435971
7 *614:CLK 0.000238579
8 *577:CLK 3.70751e-05
9 *606:CLK 4.94449e-05
10 *668:CLK 0
11 *688:CLK 0.000263733
12 *1177:X 0.000592589
13 *355:140 0.000834955
14 *355:134 0.000455236
15 *355:117 0.00041194
16 *355:70 0.000749894
17 *355:66 0.000797139
18 *355:57 0.00043451
19 *355:53 0.000402713
20 *355:42 0.000338408
21 *355:20 0.000457337
22 *355:14 0.000871244
23 *383:A1 *568:CLK 1.61631e-05
24 *383:A2 *563:CLK 3.92275e-05
25 *383:A2 *568:CLK 1.92172e-05
26 *383:A2 *355:140 9.22013e-06
27 *383:C1 *568:CLK 3.86547e-05
28 *383:C1 *576:CLK 1.69078e-05
29 *500:B1 *568:CLK 5.04829e-06
30 *527:A *355:14 1.82696e-05
31 *535:A *606:CLK 6.23875e-05
32 *538:A1 *568:CLK 0
33 *554:B *355:134 6.85963e-05
34 *554:B *355:140 2.44829e-05
35 *563:DE *563:CLK 4.01113e-05
36 *565:DE *568:CLK 8.714e-05
37 *576:DE *576:CLK 2.12987e-05
38 *577:DE *355:66 4.0101e-05
39 *614:D *614:CLK 0.000370359
40 *668:D *355:20 3.56494e-05
41 *668:D *355:53 7.9431e-05
42 *668:D *355:117 3.37714e-06
43 *668:DE *355:20 9.27913e-05
44 *688:D *1193:A 6.50727e-05
45 *688:D *355:117 1.24189e-05
46 *688:D *355:134 5.1493e-06
47 *688:DE *626:CLK 4.87301e-05
48 *4:57 *688:CLK 0.000394843
49 *4:57 *355:14 0.0006636
50 *4:57 *355:140 2.00832e-05
51 *80:8 *355:134 0
52 *80:78 *355:134 5.21758e-06
53 *81:27 *576:CLK 0.000162581
54 *81:27 *355:70 0.000182142
55 *82:111 *355:134 0.000132739
56 *97:16 *563:CLK 1.43983e-05
57 *104:14 *563:CLK 0
58 *104:81 *688:CLK 0
59 *104:81 *355:140 7.29374e-05
60 *115:35 *576:CLK 0.000169724
61 *115:35 *355:70 0.000186182
62 *115:43 *355:14 4.56273e-05
63 *115:43 *355:42 9.28672e-05
64 *115:43 *355:53 5.01441e-05
65 *116:10 *355:14 0.000153225
66 *116:27 *606:CLK 6.23875e-05
67 *116:27 *355:14 3.39782e-05
68 *119:24 *614:CLK 0
69 *119:24 *626:CLK 3.76946e-05
70 *120:12 *355:14 9.75356e-05
71 *120:12 *355:42 0.000212559
72 *120:12 *355:53 2.3302e-05
73 *120:27 *355:53 2.57465e-06
74 *139:16 *568:CLK 6.94369e-05
75 *155:10 *577:CLK 2.53145e-06
76 *155:10 *1193:A 0.000111722
77 *155:10 *355:57 4.08383e-05
78 *155:10 *355:66 1.41307e-05
79 *157:30 *614:CLK 6.87106e-05
80 *157:30 *626:CLK 0
81 *162:12 *355:14 2.27135e-05
82 *167:28 *355:53 2.5896e-05
83 *167:28 *355:117 1.26206e-05
84 *167:28 *355:134 2.55661e-06
85 *168:101 *568:CLK 6.11872e-05
86 *173:20 *568:CLK 0.000469833
87 *173:20 *355:140 0.000193655
88 *181:63 *614:CLK 0.000136381
89 *181:63 *355:53 0
*RES
1 *1177:X *355:14 27.1856 
2 *355:14 *355:20 8.57513 
3 *355:20 *688:CLK 26.511 
4 *355:20 *668:CLK 9.24915 
5 *355:14 *355:42 3.90826 
6 *355:42 *606:CLK 15.5817 
7 *355:42 *355:53 5.98452 
8 *355:53 *355:57 6.3326 
9 *355:57 *577:CLK 10.2378 
10 *355:57 *355:66 4.05102 
11 *355:66 *355:70 7.993 
12 *355:70 *614:CLK 29.4949 
13 *355:70 *576:CLK 22.2818 
14 *355:66 *626:CLK 25.8254 
15 *355:53 *355:117 1.41674 
16 *355:117 *1193:A 15.7599 
17 *355:117 *355:134 11.0742 
18 *355:134 *355:140 10.5168 
19 *355:140 *568:CLK 34.9201 
20 *355:140 *563:CLK 17.4379 
21 *355:134 *698:CLK 9.24915 
*END

*D_NET *356 0.0170276
*CONN
*I *1194:A I *D sky130_fd_sc_hd__bufinv_16
*I *665:CLK I *D sky130_fd_sc_hd__edfxtp_1
*I *613:CLK I *D sky130_fd_sc_hd__dfxtp_1
*I *662:CLK I *D sky130_fd_sc_hd__edfxtp_1
*I *683:CLK I *D sky130_fd_sc_hd__edfxtp_1
*I *620:CLK I *D sky130_fd_sc_hd__edfxtp_1
*I *616:CLK I *D sky130_fd_sc_hd__dfxtp_1
*I *666:CLK I *D sky130_fd_sc_hd__edfxtp_1
*I *591:CLK I *D sky130_fd_sc_hd__edfxtp_1
*I *611:CLK I *D sky130_fd_sc_hd__dfxtp_1
*I *561:CLK I *D sky130_fd_sc_hd__edfxtp_1
*I *675:CLK I *D sky130_fd_sc_hd__edfxtp_1
*I *1178:X O *D sky130_fd_sc_hd__clkbuf_16
*CAP
1 *1194:A 0
2 *665:CLK 9.77137e-05
3 *613:CLK 0.00019792
4 *662:CLK 0.000113112
5 *683:CLK 3.73114e-05
6 *620:CLK 0.000190421
7 *616:CLK 0.000162165
8 *666:CLK 0.0002088
9 *591:CLK 0
10 *611:CLK 0
11 *561:CLK 0.000308092
12 *675:CLK 0.000618267
13 *1178:X 0.000868531
14 *356:139 0.000558425
15 *356:100 0.000298736
16 *356:98 0.000184116
17 *356:89 0.00021368
18 *356:87 0.000418068
19 *356:85 0.000328168
20 *356:63 0.000424817
21 *356:52 0.000237845
22 *356:33 0.000409511
23 *356:29 0.000383249
24 *356:16 0.00156605
25 *356:16 *1195:A 0.000178707
26 *561:DE *561:CLK 2.57986e-05
27 *611:D *356:63 6.96362e-05
28 *616:D *616:CLK 0.000205358
29 *616:D *356:89 0.00019519
30 *659:D *666:CLK 1.07248e-05
31 *675:DE *675:CLK 2.90638e-06
32 *4:12 *356:16 0.000160793
33 *4:39 *356:16 8.58374e-05
34 *11:44 *561:CLK 0.000117018
35 *13:35 *561:CLK 0.000120544
36 *13:62 *356:16 0.000822488
37 *71:24 *666:CLK 0.000237211
38 *71:24 *356:63 0.000153588
39 *82:155 *613:CLK 3.98707e-05
40 *82:155 *665:CLK 7.45421e-05
41 *120:73 *620:CLK 0.000361679
42 *120:73 *662:CLK 0.000169632
43 *120:73 *356:100 0.000150991
44 *147:18 *613:CLK 0.000208168
45 *151:14 *620:CLK 0.000349688
46 *151:14 *662:CLK 0.0001744
47 *151:14 *356:100 0.000156588
48 *151:14 *356:139 7.36499e-05
49 *155:44 *356:85 0.000237253
50 *155:44 *356:87 6.75453e-05
51 *164:30 *356:139 0.000321641
52 *166:38 *356:87 4.97617e-05
53 *166:57 *356:16 0
54 *167:97 *356:63 0.000142509
55 *167:167 *666:CLK 0.000319297
56 *167:167 *356:63 1.91391e-05
57 *168:101 *662:CLK 2.16355e-05
58 *182:47 *356:16 0.000786279
59 *182:47 *356:29 0.000112148
60 *182:47 *356:85 0.000173689
61 *214:18 *356:29 0
62 *220:28 *662:CLK 2.16355e-05
63 *222:24 *561:CLK 3.40922e-05
64 *226:36 *620:CLK 1.03403e-05
65 *227:18 *683:CLK 1.03403e-05
66 *227:18 *356:16 0.000491224
67 *227:18 *356:29 6.28484e-05
68 *241:16 *613:CLK 0.000540238
69 *241:16 *665:CLK 3.31745e-05
70 *241:16 *356:85 0.000599769
71 *241:16 *356:87 0.000256037
72 *261:34 *356:16 2.26168e-05
73 *278:24 *561:CLK 1.21535e-05
74 *278:24 *356:29 9.7112e-06
75 *278:24 *356:33 3.75221e-05
76 *278:24 *356:85 3.19414e-05
77 *305:32 *356:16 0.000217952
78 *311:28 *675:CLK 4.28856e-07
79 *330:12 *616:CLK 5.79057e-05
80 *330:12 *356:87 1.9633e-05
81 *330:12 *356:89 4.94961e-05
82 *336:113 *666:CLK 2.57465e-06
83 *336:134 *666:CLK 3.08362e-05
84 *337:8 *356:33 2.37827e-05
85 *337:8 *356:63 0.000100531
86 *344:16 *675:CLK 3.41459e-05
87 *351:127 *356:85 9.57192e-05
*RES
1 *1178:X *356:16 46.8716 
2 *356:16 *675:CLK 22.671 
3 *356:16 *356:29 2.24725 
4 *356:29 *356:33 6.3326 
5 *356:33 *561:CLK 25.7048 
6 *356:33 *356:52 0.578717 
7 *356:52 *611:CLK 9.24915 
8 *356:52 *356:63 11.6288 
9 *356:63 *591:CLK 13.7491 
10 *356:63 *666:CLK 20.5642 
11 *356:29 *356:85 14.817 
12 *356:85 *356:87 4.05102 
13 *356:87 *356:89 2.38721 
14 *356:89 *616:CLK 13.3002 
15 *356:89 *356:98 4.5 
16 *356:98 *356:100 3.07775 
17 *356:100 *620:CLK 21.2876 
18 *356:100 *683:CLK 14.4725 
19 *356:98 *662:CLK 17.9655 
20 *356:87 *356:139 15.9785 
21 *356:139 *613:CLK 16.676 
22 *356:139 *665:CLK 12.191 
23 *356:85 *1194:A 9.24915 
*END

*D_NET *357 0.0100429
*CONN
*I *587:CLK I *D sky130_fd_sc_hd__edfxtp_1
*I *660:CLK I *D sky130_fd_sc_hd__edfxtp_1
*I *680:CLK I *D sky130_fd_sc_hd__edfxtp_1
*I *664:CLK I *D sky130_fd_sc_hd__edfxtp_1
*I *597:CLK I *D sky130_fd_sc_hd__edfxtp_1
*I *671:CLK I *D sky130_fd_sc_hd__edfxtp_1
*I *1195:A I *D sky130_fd_sc_hd__inv_6
*I *559:CLK I *D sky130_fd_sc_hd__edfxtp_1
*I *1179:X O *D sky130_fd_sc_hd__clkbuf_16
*CAP
1 *587:CLK 5.10765e-05
2 *660:CLK 0.000245847
3 *680:CLK 0.000180533
4 *664:CLK 0.000139211
5 *597:CLK 0
6 *671:CLK 0
7 *1195:A 0.00074612
8 *559:CLK 3.57807e-05
9 *1179:X 0.000235833
10 *357:95 0.000571491
11 *357:80 0.000647113
12 *357:67 0.000725493
13 *357:52 0.000524079
14 *357:35 0.00116071
15 *357:27 0.000541791
16 *357:14 0.000509118
17 *378:A *357:52 0.000114523
18 *378:A *357:67 5.39635e-06
19 *378:D_N *1195:A 2.16355e-05
20 *378:D_N *357:52 5.04829e-06
21 *414:A1 *664:CLK 4.30017e-06
22 *414:A1 *357:80 7.08723e-06
23 *414:S *664:CLK 6.69175e-05
24 *420:S *357:80 0.000254445
25 *449:A2 *587:CLK 0.00016763
26 *453:A0 *660:CLK 0
27 *481:A2 *357:27 1.5714e-05
28 *573:DE *1195:A 3.39728e-05
29 *641:DE *357:14 2.15348e-05
30 *647:CLK *357:14 6.50586e-05
31 *664:DE *664:CLK 2.60249e-05
32 *664:DE *357:80 5.8518e-05
33 *664:DE *357:95 0
34 *671:DE *357:52 9.82896e-06
35 *671:DE *357:67 0.000126004
36 *680:DE *660:CLK 0
37 *680:DE *357:80 6.76194e-06
38 *680:DE *357:95 3.50304e-05
39 *691:CLK *357:35 2.77419e-05
40 *4:47 *1195:A 2.41274e-06
41 *11:60 *357:35 0.00031986
42 *31:28 *660:CLK 0.000112012
43 *38:16 *357:14 4.20931e-05
44 *38:16 *357:27 0.000116138
45 *38:16 *357:67 8.62262e-06
46 *71:24 *660:CLK 4.20924e-05
47 *71:24 *357:27 0.000151013
48 *71:24 *357:35 5.99493e-05
49 *71:24 *357:80 2.02035e-05
50 *71:24 *357:95 0.000127031
51 *95:18 *357:14 4.81015e-05
52 *118:57 *1195:A 4.45999e-05
53 *163:14 *587:CLK 6.22868e-05
54 *163:14 *357:35 0.000156946
55 *170:133 *357:80 2.15916e-05
56 *260:26 *357:35 1.9101e-05
57 *261:34 *1195:A 0.000262573
58 *279:38 *357:80 1.00778e-05
59 *336:10 *660:CLK 4.6535e-05
60 *336:18 *664:CLK 4.79321e-06
61 *343:138 *1195:A 3.4123e-05
62 *343:167 *1195:A 2.95884e-05
63 *343:167 *357:35 4.8878e-06
64 *350:545 *357:67 0.000335042
65 *350:545 *357:80 2.08323e-05
66 *354:10 *357:14 3.20069e-06
67 *354:40 *357:14 6.65296e-05
68 *354:40 *357:27 5.45074e-05
69 *354:49 *357:35 2.43314e-05
70 *354:53 *357:35 6.08467e-05
71 *354:81 *357:35 0.000164863
72 *356:16 *1195:A 0.000178707
*RES
1 *1179:X *357:14 19.8317 
2 *357:14 *559:CLK 14.4725 
3 *357:14 *357:27 10.8998 
4 *357:27 *357:35 18.0629 
5 *357:35 *1195:A 35.9448 
6 *357:35 *357:52 4.05102 
7 *357:52 *671:CLK 9.24915 
8 *357:52 *357:67 13.3499 
9 *357:67 *597:CLK 13.7491 
10 *357:67 *357:80 9.25768 
11 *357:80 *664:CLK 17.0044 
12 *357:80 *357:95 3.90826 
13 *357:95 *680:CLK 16.5704 
14 *357:95 *660:CLK 20.2256 
15 *357:27 *587:CLK 11.6605 
*END

*D_NET *358 0.0117653
*CONN
*I *1196:A I *D sky130_fd_sc_hd__inv_6
*I *655:CLK I *D sky130_fd_sc_hd__edfxtp_1
*I *585:CLK I *D sky130_fd_sc_hd__edfxtp_1
*I *695:CLK I *D sky130_fd_sc_hd__edfxtp_1
*I *686:CLK I *D sky130_fd_sc_hd__edfxtp_1
*I *578:CLK I *D sky130_fd_sc_hd__edfxtp_1
*I *690:CLK I *D sky130_fd_sc_hd__edfxtp_1
*I *596:CLK I *D sky130_fd_sc_hd__edfxtp_1
*I *1180:X O *D sky130_fd_sc_hd__clkbuf_16
*CAP
1 *1196:A 0.000146787
2 *655:CLK 8.90484e-05
3 *585:CLK 0.00025831
4 *695:CLK 1.48314e-05
5 *686:CLK 0.000122887
6 *578:CLK 8.90621e-05
7 *690:CLK 0.000120992
8 *596:CLK 2.5488e-05
9 *1180:X 0.000347254
10 *358:77 0.000476245
11 *358:37 0.000315921
12 *358:26 0.000259224
13 *358:24 0.000327176
14 *358:20 0.000124305
15 *358:16 0.00137147
16 *358:10 0.00170357
17 *393:A2 *358:16 7.85262e-05
18 *429:A1 *358:16 8.63087e-06
19 *465:A3 *585:CLK 0.000226438
20 *465:S0 *1196:A 0
21 *465:S0 *358:10 0
22 *481:A3 *655:CLK 5.14358e-05
23 *481:A3 *690:CLK 1.50753e-05
24 *481:A3 *358:20 3.76286e-05
25 *481:A3 *358:77 0.000249984
26 *483:A1 *358:16 4.34835e-05
27 *655:DE *585:CLK 0.000226438
28 *690:D *358:20 1.05456e-05
29 *690:D *358:77 3.58315e-06
30 *695:D *655:CLK 5.49916e-05
31 *695:D *358:77 0.000250752
32 *142:12 *1196:A 0.000139221
33 *142:12 *358:10 0.000157115
34 *156:101 *585:CLK 0.000235123
35 *156:101 *686:CLK 0.000172364
36 *156:101 *358:26 8.17641e-05
37 *156:101 *358:37 1.05272e-06
38 *160:37 *358:16 8.4649e-05
39 *160:56 *358:16 0.00105385
40 *183:40 *690:CLK 9.39505e-05
41 *210:20 *690:CLK 1.3044e-05
42 *210:20 *358:37 0
43 *217:44 *1196:A 1.43259e-05
44 *233:34 *358:16 4.26467e-05
45 *251:24 *695:CLK 1.88014e-05
46 *251:24 *358:16 0.000552558
47 *251:24 *358:24 1.75049e-05
48 *252:10 *358:10 3.47046e-05
49 *254:12 *578:CLK 8.48378e-05
50 *254:12 *686:CLK 0.000178027
51 *254:12 *690:CLK 8.6297e-06
52 *254:12 *358:26 0.000164439
53 *254:12 *358:37 0.000192549
54 *254:22 *655:CLK 3.82228e-05
55 *260:26 *578:CLK 4.95077e-05
56 *260:26 *690:CLK 6.01588e-05
57 *271:26 *358:16 0.000663102
58 *279:62 *695:CLK 6.08467e-05
59 *279:62 *358:16 0.000156081
60 *279:62 *358:24 7.67019e-05
61 *299:26 *655:CLK 6.37652e-06
62 *299:26 *358:16 6.22482e-05
63 *325:20 *585:CLK 8.61698e-05
64 *350:389 *1196:A 0.000114594
*RES
1 *1180:X *358:10 20.1157 
2 *358:10 *358:16 10 
3 *358:16 *358:20 5.29386 
4 *358:20 *358:24 6.3326 
5 *358:24 *358:26 3.493 
6 *358:26 *596:CLK 14.4819 
7 *358:26 *358:37 3.493 
8 *358:37 *690:CLK 17.5597 
9 *358:37 *578:CLK 16.1364 
10 *358:24 *686:CLK 17.9655 
11 *358:20 *695:CLK 9.97254 
12 *358:16 *358:77 5.15401 
13 *358:77 *585:CLK 25.3737 
14 *358:77 *655:CLK 16.2363 
15 *358:10 *1196:A 17.8973 
*END

*D_NET *359 0.0125831
*CONN
*I *684:CLK I *D sky130_fd_sc_hd__edfxtp_1
*I *687:CLK I *D sky130_fd_sc_hd__edfxtp_1
*I *586:CLK I *D sky130_fd_sc_hd__edfxtp_1
*I *631:CLK I *D sky130_fd_sc_hd__edfxtp_1
*I *584:CLK I *D sky130_fd_sc_hd__edfxtp_1
*I *630:CLK I *D sky130_fd_sc_hd__edfxtp_1
*I *1197:A I *D sky130_fd_sc_hd__clkinv_4
*I *703:CLK I *D sky130_fd_sc_hd__edfxtp_1
*I *702:CLK I *D sky130_fd_sc_hd__edfxtp_1
*I *696:CLK I *D sky130_fd_sc_hd__edfxtp_1
*I *1181:X O *D sky130_fd_sc_hd__clkbuf_16
*CAP
1 *684:CLK 0.000318767
2 *687:CLK 2.53871e-05
3 *586:CLK 3.9602e-05
4 *631:CLK 0.000112484
5 *584:CLK 0
6 *630:CLK 0.000352886
7 *1197:A 0.000415862
8 *703:CLK 2.81489e-05
9 *702:CLK 9.59369e-05
10 *696:CLK 2.86212e-05
11 *1181:X 0.000149427
12 *359:136 0.00058029
13 *359:79 0.000987155
14 *359:69 0.000469611
15 *359:65 0.000453345
16 *359:54 0.000261241
17 *359:39 0.000357485
18 *359:35 0.000734093
19 *359:27 0.00104119
20 *359:12 0.000406726
21 *453:A0 *630:CLK 0.000134746
22 *543:S *1197:A 0.000387544
23 *584:D *359:69 0.000189891
24 *584:D *359:79 0.000107496
25 *584:DE *359:69 3.70952e-05
26 *631:D *631:CLK 1.55025e-05
27 *684:DE *684:CLK 4.16632e-05
28 *687:DE *687:CLK 1.41976e-05
29 *703:D *703:CLK 5.04829e-06
30 *703:D *359:54 5.2153e-05
31 *703:D *359:65 1.94614e-05
32 *69:26 *1197:A 0.000129091
33 *69:26 *359:79 0.000234851
34 *70:30 *630:CLK 1.58733e-05
35 *70:30 *359:79 4.76279e-05
36 *72:30 *359:27 6.09999e-05
37 *72:30 *359:136 7.39015e-05
38 *80:137 *586:CLK 0.000111802
39 *80:137 *359:35 0.000165969
40 *80:150 *359:27 3.61378e-05
41 *80:150 *359:35 8.18912e-05
42 *81:95 *631:CLK 6.3657e-05
43 *81:101 *631:CLK 0.000114694
44 *81:101 *359:65 0.000154244
45 *81:124 *359:54 1.42793e-06
46 *81:177 *696:CLK 6.08467e-05
47 *81:177 *359:12 1.80208e-05
48 *81:177 *359:27 9.12416e-06
49 *82:174 *630:CLK 7.84479e-05
50 *82:176 *630:CLK 0.000224947
51 *82:193 *630:CLK 0.000373205
52 *82:268 *631:CLK 5.04829e-06
53 *82:268 *359:69 9.45422e-05
54 *82:268 *359:79 4.2372e-05
55 *125:28 *1197:A 4.45556e-05
56 *155:68 *702:CLK 5.86188e-05
57 *155:68 *359:54 8.69531e-06
58 *156:87 *702:CLK 0.000183498
59 *156:87 *359:54 9.98153e-05
60 *158:53 *631:CLK 0.000146554
61 *158:53 *359:65 5.19712e-05
62 *158:69 *359:12 5.64215e-05
63 *160:81 *359:12 4.41737e-05
64 *160:81 *359:27 4.0605e-06
65 *160:81 *359:136 6.43431e-05
66 *160:120 *684:CLK 9.26659e-05
67 *160:120 *359:136 4.68256e-05
68 *161:108 *1197:A 3.19246e-05
69 *168:84 *631:CLK 1.1718e-05
70 *170:133 *630:CLK 0
71 *170:133 *359:79 9.81829e-05
72 *209:32 *684:CLK 5.9341e-05
73 *210:16 *586:CLK 4.14014e-05
74 *210:16 *702:CLK 7.09666e-06
75 *210:16 *359:39 9.85056e-05
76 *210:16 *359:54 3.92776e-05
77 *210:20 *702:CLK 9.63718e-06
78 *217:44 *684:CLK 0.000188479
79 *220:28 *1197:A 1.82501e-05
80 *220:28 *359:79 9.33816e-06
81 *242:18 *703:CLK 2.16355e-05
82 *244:24 *1197:A 0.000264029
83 *268:30 *631:CLK 1.42156e-05
84 *268:30 *359:69 1.03403e-05
85 *268:52 *359:54 8.77441e-05
86 *268:52 *359:65 0.000101715
87 *287:24 *684:CLK 0
88 *288:40 *359:12 6.08467e-05
89 *293:24 *359:27 7.5909e-06
90 *293:42 *359:27 0
91 *293:42 *359:69 6.53173e-05
92 *293:42 *359:136 1.6839e-05
93 *301:30 *1197:A 0.000268497
94 *322:48 *359:12 6.67835e-06
95 *322:48 *359:27 9.82974e-06
96 *322:48 *359:136 0
97 *330:48 *687:CLK 6.08467e-05
98 *332:32 *630:CLK 9.83674e-06
*RES
1 *1181:X *359:12 17.4526 
2 *359:12 *696:CLK 14.4725 
3 *359:12 *359:27 8.9951 
4 *359:27 *359:35 10.224 
5 *359:35 *359:39 7.44181 
6 *359:39 *702:CLK 17.2421 
7 *359:39 *359:54 4.39679 
8 *359:54 *703:CLK 14.4725 
9 *359:54 *359:65 3.493 
10 *359:65 *359:69 11.8786 
11 *359:69 *359:79 11.5423 
12 *359:79 *1197:A 22.8791 
13 *359:79 *630:CLK 28.604 
14 *359:69 *584:CLK 9.24915 
15 *359:65 *631:CLK 17.5503 
16 *359:35 *586:CLK 11.0817 
17 *359:27 *359:136 10.8509 
18 *359:136 *687:CLK 14.4725 
19 *359:136 *684:CLK 22.4727 
*END

*D_NET *361 0.0139754
*CONN
*I *599:CLK I *D sky130_fd_sc_hd__edfxtp_1
*I *622:CLK I *D sky130_fd_sc_hd__dfxtp_1
*I *595:CLK I *D sky130_fd_sc_hd__edfxtp_1
*I *651:CLK I *D sky130_fd_sc_hd__edfxtp_1
*I *618:CLK I *D sky130_fd_sc_hd__dfxtp_1
*I *1199:A I *D sky130_fd_sc_hd__bufinv_16
*I *701:CLK I *D sky130_fd_sc_hd__edfxtp_1
*I *646:CLK I *D sky130_fd_sc_hd__edfxtp_1
*I *700:CLK I *D sky130_fd_sc_hd__edfxtp_1
*I *565:CLK I *D sky130_fd_sc_hd__edfxtp_1
*I *569:CLK I *D sky130_fd_sc_hd__edfxtp_1
*I *592:CLK I *D sky130_fd_sc_hd__edfxtp_1
*I *1183:X O *D sky130_fd_sc_hd__clkbuf_16
*CAP
1 *599:CLK 0
2 *622:CLK 0.000539665
3 *595:CLK 0.000431278
4 *651:CLK 0
5 *618:CLK 0.000267588
6 *1199:A 0
7 *701:CLK 0.000487051
8 *646:CLK 6.92932e-05
9 *700:CLK 0.000349012
10 *565:CLK 4.7498e-05
11 *569:CLK 0.000571345
12 *592:CLK 0.000180658
13 *1183:X 0.000354188
14 *361:42 0.000942777
15 *361:36 0.000309079
16 *361:32 0.000540547
17 *361:30 0.000338725
18 *361:28 0.000770447
19 *361:20 0.000292441
20 *361:18 0.000498244
21 *361:14 0.000161301
22 *361:12 0.00113412
23 *361:10 0.000428968
24 *700:CLK *1200:A 7.48038e-05
25 *361:32 *1200:A 4.89469e-06
26 *406:C1 *700:CLK 0.000135038
27 *428:A1 *569:CLK 6.12686e-06
28 *428:A2 *569:CLK 5.35399e-05
29 *428:A2 *361:28 3.34802e-05
30 *428:A2 *361:30 6.66974e-05
31 *538:A1 *361:30 0
32 *538:A1 *361:32 0
33 *538:A1 *361:36 0
34 *543:A0 *569:CLK 6.08467e-05
35 *543:A1 *569:CLK 0.000160617
36 *544:A1 *361:30 2.37478e-05
37 *545:A2 *569:CLK 3.99086e-06
38 *545:A2 *700:CLK 4.31351e-05
39 *553:A *701:CLK 3.34011e-05
40 *595:DE *595:CLK 2.90638e-06
41 *595:DE *622:CLK 1.66425e-05
42 *595:DE *361:14 7.50872e-05
43 *599:DE *622:CLK 1.45104e-05
44 *612:D *361:30 9.72539e-05
45 *612:D *361:32 0.00025705
46 *612:D *361:36 0.000101763
47 *612:D *361:42 0
48 *701:DE *701:CLK 9.55693e-06
49 *1172:A *618:CLK 0.000797107
50 *1172:A *361:20 0.000211478
51 *44:30 *361:42 2.86878e-05
52 *47:12 *569:CLK 3.79844e-06
53 *47:12 *361:10 0.000110058
54 *47:12 *361:12 0.00013408
55 *47:12 *361:14 0.00025987
56 *47:12 *361:18 0.000187498
57 *81:6 *361:20 0.000172018
58 *81:6 *361:28 2.57847e-05
59 *81:226 *618:CLK 0.000107101
60 *81:226 *361:20 5.04829e-06
61 *82:6 *646:CLK 1.03403e-05
62 *82:10 *361:14 3.67708e-05
63 *82:10 *361:18 0.000187498
64 *82:41 *361:14 1.3023e-05
65 *96:16 *592:CLK 3.07159e-05
66 *96:22 *700:CLK 1.86464e-05
67 *104:14 *592:CLK 0.000130777
68 *104:14 *361:42 0.000310716
69 *104:39 *565:CLK 3.82228e-05
70 *104:39 *361:42 1.92172e-05
71 *107:24 *622:CLK 0.000129564
72 *109:24 *361:42 3.09847e-05
73 *115:35 *622:CLK 1.20291e-05
74 *119:18 *361:10 0.000341214
75 *130:52 *361:30 4.75721e-06
76 *139:16 *700:CLK 4.04556e-05
77 *150:14 *361:10 1.37563e-05
78 *152:20 *565:CLK 1.03403e-05
79 *152:20 *361:42 0
80 *156:14 *361:10 2.60879e-06
81 *156:14 *361:12 4.75196e-05
82 *156:14 *361:14 6.23914e-05
83 *214:18 *592:CLK 0
84 *214:18 *361:42 0
85 *253:20 *622:CLK 2.7613e-05
86 *286:18 *622:CLK 0.000196971
87 *286:18 *361:28 1.62054e-05
88 *286:18 *361:30 1.77537e-06
89 *317:22 *700:CLK 0.000209407
*RES
1 *1183:X *361:10 20.602 
2 *361:10 *361:12 2.6625 
3 *361:12 *361:14 4.73876 
4 *361:14 *361:18 7.993 
5 *361:18 *361:20 5.16022 
6 *361:20 *361:28 8.18338 
7 *361:28 *361:30 4.73876 
8 *361:30 *361:32 4.53113 
9 *361:32 *361:36 6.53962 
10 *361:36 *361:42 11.0714 
11 *361:42 *592:CLK 18.9382 
12 *361:42 *569:CLK 22.671 
13 *361:36 *565:CLK 10.5271 
14 *361:32 *700:CLK 24.3537 
15 *361:30 *646:CLK 15.0271 
16 *361:28 *701:CLK 21.1854 
17 *361:20 *1199:A 9.24915 
18 *361:18 *618:CLK 18.2916 
19 *361:14 *651:CLK 13.7491 
20 *361:12 *595:CLK 19.898 
21 *361:12 *622:CLK 25.6924 
22 *361:10 *599:CLK 13.7491 
*END

*D_NET *362 0.0173914
*CONN
*I *650:CLK I *D sky130_fd_sc_hd__edfxtp_1
*I *589:CLK I *D sky130_fd_sc_hd__edfxtp_1
*I *612:CLK I *D sky130_fd_sc_hd__dfxtp_1
*I *1200:A I *D sky130_fd_sc_hd__clkinv_4
*I *656:CLK I *D sky130_fd_sc_hd__edfxtp_1
*I *692:CLK I *D sky130_fd_sc_hd__edfxtp_1
*I *615:CLK I *D sky130_fd_sc_hd__dfxtp_1
*I *636:CLK I *D sky130_fd_sc_hd__edfxtp_1
*I *588:CLK I *D sky130_fd_sc_hd__edfxtp_1
*I *574:CLK I *D sky130_fd_sc_hd__edfxtp_1
*I *1184:X O *D sky130_fd_sc_hd__clkbuf_16
*CAP
1 *650:CLK 0
2 *589:CLK 0
3 *612:CLK 1.5059e-05
4 *1200:A 0.00113499
5 *656:CLK 0.000369436
6 *692:CLK 3.93497e-05
7 *615:CLK 0.000706848
8 *636:CLK 0.000584408
9 *588:CLK 8.29319e-05
10 *574:CLK 0.000480695
11 *1184:X 0.00117656
12 *362:118 0.0015528
13 *362:108 0.000402756
14 *362:79 0.000746198
15 *362:64 0.000648691
16 *362:62 0.000552642
17 *362:60 0.000289224
18 *362:58 0.0002074
19 *362:28 0.000885548
20 *362:26 0.000597001
21 *362:18 0.00141454
22 *362:18 *570:CLK 0
23 *538:A1 *1200:A 1.1573e-05
24 *545:A2 *1200:A 0
25 *570:DE *362:18 2.01653e-05
26 *612:D *1200:A 4.57882e-05
27 *612:D *362:118 2.04854e-05
28 *615:D *615:CLK 0.000108316
29 *636:DE *636:CLK 3.74298e-05
30 *646:DE *1200:A 0.000394595
31 *646:DE *362:118 0.000203184
32 *648:DE *362:18 0.000321199
33 *650:DE *362:26 1.57428e-05
34 *650:DE *362:28 3.99086e-06
35 *656:DE *656:CLK 3.74298e-05
36 *700:DE *1200:A 5.11321e-05
37 *700:CLK *1200:A 7.48038e-05
38 *1172:A *574:CLK 4.61086e-05
39 *1172:A *362:28 6.9248e-05
40 *6:69 *636:CLK 8.67409e-05
41 *6:69 *362:58 2.42576e-05
42 *6:69 *362:60 5.02459e-05
43 *6:69 *362:62 8.25019e-05
44 *6:69 *362:64 3.88655e-06
45 *81:12 *1200:A 5.45571e-05
46 *108:26 *362:18 1.5714e-05
47 *113:10 *574:CLK 0.000214109
48 *118:20 *636:CLK 0.00011475
49 *118:20 *362:26 0.000181927
50 *118:20 *362:62 1.04726e-05
51 *118:20 *362:64 1.75682e-05
52 *130:52 *1200:A 0
53 *146:26 *636:CLK 6.85329e-05
54 *146:26 *362:18 0
55 *146:26 *362:64 4.30869e-05
56 *147:18 *588:CLK 0.000106543
57 *155:198 *362:18 0
58 *157:20 *588:CLK 3.72692e-05
59 *164:49 *362:18 0.000451855
60 *164:49 *362:26 4.36296e-05
61 *164:60 *362:18 0.000234786
62 *164:71 *362:18 0.000132804
63 *164:75 *362:18 0.000174403
64 *168:26 *362:26 1.29348e-05
65 *168:131 *362:18 4.28856e-07
66 *180:87 *574:CLK 0.000226156
67 *219:38 *636:CLK 3.17192e-06
68 *228:40 *362:18 0
69 *249:28 *362:18 7.39134e-05
70 *272:18 *1200:A 7.98171e-06
71 *272:18 *362:60 0.000134069
72 *272:18 *362:118 0.000156657
73 *280:16 *362:18 0
74 *286:18 *362:18 0
75 *297:46 *362:18 0
76 *309:32 *1200:A 0.00024624
77 *317:22 *1200:A 1.98791e-05
78 *323:32 *574:CLK 1.43041e-05
79 *328:32 *362:58 7.47581e-05
80 *328:32 *362:60 0.000325914
81 *328:32 *362:62 0.000224166
82 *337:26 *362:60 5.49916e-05
83 *344:84 *362:18 0.000260026
84 *347:10 *362:62 4.51062e-05
85 *350:57 *362:18 7.86825e-06
86 *361:32 *1200:A 4.89469e-06
*RES
1 *1184:X *362:18 48.5982 
2 *362:18 *362:26 14.3256 
3 *362:26 *362:28 4.60562 
4 *362:28 *574:CLK 28.4563 
5 *362:28 *588:CLK 20.4964 
6 *362:26 *362:58 5.91674 
7 *362:58 *362:60 6.39977 
8 *362:60 *362:62 4.73876 
9 *362:62 *362:64 1.41674 
10 *362:64 *636:CLK 24.9127 
11 *362:64 *362:79 4.5 
12 *362:79 *615:CLK 19.2802 
13 *362:79 *692:CLK 10.2378 
14 *362:62 *656:CLK 19.3434 
15 *362:60 *362:108 4.5 
16 *362:108 *362:118 10.5375 
17 *362:118 *1200:A 37.8934 
18 *362:118 *612:CLK 9.82786 
19 *362:108 *589:CLK 9.24915 
20 *362:58 *650:CLK 13.7491 
*END

*D_NET *189 0.00246145
*CONN
*P din[0] I
*I *391:A I *D sky130_fd_sc_hd__and2_0
*CAP
1 din[0] 0.00113003
2 *391:A 0.00113003
3 *391:A *190:13 0
4 *100:10 *391:A 0.000201393
*RES
1 din[0] *391:A 32.5079 
*END

*D_NET *190 0.00331106
*CONN
*P din[1] I
*I *390:A I *D sky130_fd_sc_hd__and2_0
*CAP
1 din[1] 0.00155485
2 *390:A 0
3 *190:13 0.00155485
4 *391:A *190:13 0
5 *514:B *190:13 7.89747e-05
6 *155:10 *190:13 0.000122378
*RES
1 din[1] *190:13 48.6043 
2 *190:13 *390:A 9.24915 
*END

*D_NET *191 0.00256948
*CONN
*P din[2] I
*I *389:A I *D sky130_fd_sc_hd__and2_0
*CAP
1 din[2] 0.00128474
2 *389:A 0.00128474
*RES
1 din[2] *389:A 42.1711 
*END

*D_NET *192 0.00427464
*CONN
*P din[3] I
*I *388:A I *D sky130_fd_sc_hd__and2_0
*CAP
1 din[3] 0.0014436
2 *388:A 0.0014436
3 *388:A *193:17 0.000201382
4 *388:A *344:37 0
5 *100:10 *388:A 0.00118605
*RES
1 din[3] *388:A 48.2808 
*END

*D_NET *193 0.00463259
*CONN
*P din[4] I
*I *387:A I *D sky130_fd_sc_hd__and2_0
*CAP
1 din[4] 0.00185631
2 *387:A 0
3 *193:17 0.00185631
4 *193:17 *524:A_N 3.23263e-05
5 *193:17 *524:C 4.4402e-05
6 *193:17 *343:29 0
7 *193:17 *343:52 0
8 *193:17 *344:37 0.000417464
9 *388:A *193:17 0.000201382
10 *100:10 *193:17 0.000169588
11 *119:18 *193:17 5.481e-05
*RES
1 din[4] *193:17 46.0299 
2 *193:17 *387:A 9.24915 
*END

*D_NET *197 0.0191483
*CONN
*P dout[0] O
*I *486:A1 I *D sky130_fd_sc_hd__o21ai_0
*I *617:Q O *D sky130_fd_sc_hd__dfxtp_1
*CAP
1 dout[0] 0.00117938
2 *486:A1 0.000944077
3 *617:Q 0.000551088
4 *197:47 0.00635132
5 *197:45 0.00566896
6 *197:10 0.00199218
7 *486:A1 dout[1] 4.12977e-05
8 *486:A1 *429:A1 0.000153944
9 *486:A1 *465:S0 5.04829e-06
10 *486:A1 *215:40 5.85557e-05
11 *486:A1 *231:28 0.000108463
12 *197:10 *465:A0 9.63731e-06
13 *392:B *197:47 0.000165394
14 *393:A2 *486:A1 1.80143e-06
15 *439:B1 *486:A1 0.000202304
16 *617:D *197:10 6.08467e-05
17 *55:20 *197:45 0.00041749
18 *67:20 *486:A1 1.5714e-05
19 *92:16 *486:A1 0
20 *92:16 *197:10 0
21 *99:12 *486:A1 7.52574e-06
22 *131:38 *486:A1 0.000542344
23 *136:26 *197:10 0.000422535
24 *145:32 *197:10 0.000103484
25 *165:10 *486:A1 3.90068e-05
26 *165:10 *197:10 0.000105896
*RES
1 *617:Q *197:10 28.3497 
2 *197:10 *486:A1 43.5303 
3 *197:10 *197:45 17.0027 
4 *197:45 *197:47 118.601 
5 *197:47 dout[0] 40.0163 
*END

*D_NET *198 0.0155411
*CONN
*P dout[1] O
*I *471:A1 I *D sky130_fd_sc_hd__o21ai_0
*I *619:Q O *D sky130_fd_sc_hd__dfxtp_1
*CAP
1 dout[1] 0.00643551
2 *471:A1 0
3 *619:Q 0.000446982
4 *198:20 0.0068825
5 dout[1] *460:S0 0.000189561
6 dout[1] *262:26 5.81464e-05
7 *198:20 *460:S0 0.00016392
8 *198:20 *460:S1 8.05972e-06
9 *198:20 *216:12 1.91391e-05
10 *198:20 *310:36 0.000246634
11 *486:A1 dout[1] 4.12977e-05
12 *3:93 dout[1] 0.000521638
13 *36:14 dout[1] 0
14 *58:28 dout[1] 4.96221e-05
15 *87:30 *198:20 3.49028e-05
16 *99:12 dout[1] 0
17 *110:40 dout[1] 0.000273518
18 *110:40 *198:20 0.000169665
19 *145:32 dout[1] 0
20 *145:32 *198:20 0
*RES
1 *619:Q *198:20 25.0985 
2 *198:20 dout[1] 42.6524 
3 *198:20 *471:A1 13.7491 
*END

*D_NET *200 0.019746
*CONN
*P dout[3] O
*I *455:A1 I *D sky130_fd_sc_hd__o21ai_0
*I *623:Q O *D sky130_fd_sc_hd__dfxtp_1
*CAP
1 dout[3] 0.00593293
2 *455:A1 0.00104808
3 *623:Q 0.000562974
4 *200:10 0.00754398
5 dout[3] *421:B2 3.21156e-06
6 dout[3] *350:328 0
7 dout[3] *350:351 0.001082
8 *455:A1 *466:A1 2.57465e-06
9 *455:A1 *466:S1 2.83167e-05
10 *455:A1 *232:20 0
11 *455:A1 *265:68 0
12 *455:A1 *350:353 0.000364196
13 *455:A1 *350:355 0.000442055
14 *455:A1 *350:373 0.000186553
15 *200:10 *451:A1 0.000385824
16 *200:10 *466:A1 8.5637e-05
17 *200:10 *259:28 0.000182927
18 *200:10 *312:20 0
19 *393:A2 *455:A1 0.000114332
20 *439:B1 *455:A1 2.41274e-06
21 *538:A2 dout[3] 6.98716e-05
22 *549:A2 *455:A1 1.50862e-05
23 *593:D *200:10 5.34249e-06
24 *35:28 dout[3] 9.0174e-05
25 *51:38 *455:A1 1.82746e-05
26 *91:16 *455:A1 6.42879e-05
27 *110:40 *455:A1 0
28 *125:28 dout[3] 0
29 *131:38 *455:A1 0.000717639
30 *145:32 *455:A1 0.000717351
31 *165:10 *200:10 7.49659e-06
32 *168:84 *200:10 3.52635e-05
33 *182:189 dout[3] 3.7159e-05
*RES
1 *623:Q *200:10 26.6232 
2 *200:10 *455:A1 45.9815 
3 *200:10 dout[3] 30.3197 
*END

*D_NET *201 0.0191822
*CONN
*P dout[4] O
*I *447:A1 I *D sky130_fd_sc_hd__o21ai_0
*I *607:Q O *D sky130_fd_sc_hd__dfxtp_1
*CAP
1 dout[4] 0.00107715
2 *447:A1 6.03236e-05
3 *607:Q 0.000609271
4 *201:22 0.00772324
5 *201:20 0.00664609
6 *201:18 0.000669595
7 dout[4] *204:39 0
8 *447:A1 *318:16 6.43474e-05
9 *201:18 *380:A 6.31223e-05
10 *201:18 *437:A0 3.80874e-05
11 *201:18 *437:A1 3.121e-06
12 *201:18 *269:20 1.66626e-05
13 *201:18 *318:16 3.91944e-05
14 *201:18 *366:26 0.000239955
15 *201:22 *551:A1 0.000130065
16 *478:B1 *447:A1 1.07248e-05
17 *545:B1 *201:22 0.000134733
18 *5:24 *201:22 0.000466315
19 *13:128 *201:18 0
20 *49:12 *447:A1 3.58321e-05
21 *49:12 *201:18 6.14519e-06
22 *51:36 *201:18 0.000126862
23 *88:32 *201:18 0.00095995
24 *130:52 *447:A1 1.27071e-05
25 *130:52 *201:18 4.87042e-05
*RES
1 *607:Q *201:18 24.9185 
2 *201:18 *201:20 4.5 
3 *201:20 *201:22 97.779 
4 *201:22 dout[4] 12.2847 
5 *201:18 *447:A1 15.9964 
*END

*D_NET *202 0.0275701
*CONN
*P dout[5] O
*I *429:A1 I *D sky130_fd_sc_hd__o21ai_0
*I *609:Q O *D sky130_fd_sc_hd__dfxtp_1
*CAP
1 dout[5] 0.00687495
2 *429:A1 0.0020022
3 *609:Q 1.83154e-05
4 *202:10 0.00889546
5 dout[5] *401:A1 0.000107019
6 dout[5] *431:A1 8.11105e-05
7 dout[5] *228:40 0.000277337
8 dout[5] *239:16 6.39108e-05
9 dout[5] *273:30 0.00157102
10 *429:A1 *401:A1 0.000159402
11 *429:A1 *401:B2 8.75824e-06
12 *429:A1 *431:A1 8.46605e-05
13 *429:A1 *215:40 0.00123332
14 *429:A1 *233:34 0.000150941
15 *429:A1 *248:34 0.00161574
16 *429:A1 *266:28 0.00113328
17 *429:A1 *273:30 0.000961354
18 *429:A1 *277:34 0.000195211
19 *429:A1 *358:16 8.63087e-06
20 *202:10 *216:36 4.69495e-06
21 *483:A1 *429:A1 0.000336707
22 *484:B1 *429:A1 9.95922e-06
23 *486:A1 *429:A1 0.000153944
24 *48:10 *429:A1 5.64638e-05
25 *58:28 dout[5] 0.00154656
26 *110:40 *202:10 1.91391e-05
27 *182:189 dout[5] 0
*RES
1 *609:Q *202:10 17.4965 
2 *202:10 *429:A1 29.0504 
3 *202:10 dout[5] 23.8234 
*END

*D_NET *203 0.0165862
*CONN
*P dout[6] O
*I *412:A1 I *D sky130_fd_sc_hd__o21ai_0
*I *625:Q O *D sky130_fd_sc_hd__dfxtp_1
*CAP
1 dout[6] 0.00607534
2 *412:A1 0.000314233
3 *625:Q 0.000170327
4 *203:10 0.0065599
5 dout[6] *329:32 0
6 *401:C1 dout[6] 0.000346925
7 *433:A2 *412:A1 0.000403486
8 *11:158 dout[6] 0.000736546
9 *11:158 *203:10 0.000298059
10 *20:24 *412:A1 0.000172531
11 *42:22 dout[6] 0.000209814
12 *63:12 dout[6] 0.000141764
13 *137:8 dout[6] 0.000803962
14 *137:8 *203:10 0.000298059
15 *138:28 dout[6] 0
16 *143:14 dout[6] 5.52229e-05
*RES
1 *625:Q *203:10 20.0418 
2 *203:10 *412:A1 24.1178 
3 *203:10 dout[6] 35.7419 
*END

*D_NET *204 0.018724
*CONN
*P dout[7] O
*I *551:A1 I *D sky130_fd_sc_hd__o21ai_0
*I *669:Q O *D sky130_fd_sc_hd__dfxtp_1
*CAP
1 dout[7] 2.52041e-05
2 *551:A1 0.000567193
3 *669:Q 0.00124341
4 *204:43 0.00168504
5 *204:39 0.00647789
6 *204:12 0.00662866
7 *551:A1 *350:310 3.82228e-05
8 *204:12 *211:24 6.43622e-06
9 *204:12 *216:36 4.46284e-06
10 *204:12 *216:46 3.94829e-05
11 *204:12 *251:60 0.000113066
12 dout[4] *204:39 0
13 *411:C1 *551:A1 0
14 *5:24 *551:A1 0.000249843
15 *13:111 *204:12 8.38557e-05
16 *13:128 *204:12 0.000124415
17 *63:8 *551:A1 0.000544348
18 *131:38 *551:A1 0.000127164
19 *138:16 *551:A1 0
20 *182:189 *204:12 0.000635197
21 *201:22 *551:A1 0.000130065
*RES
1 *669:Q *204:12 22.42 
2 *204:12 *551:A1 44.4541 
3 *204:12 *204:39 19.832 
4 *204:39 *204:43 47.1922 
5 *204:43 dout[7] 3.43197 
*END

*D_NET *205 0.0128762
*CONN
*P empty O
*I *392:Y O *D sky130_fd_sc_hd__nor2_1
*CAP
1 empty 0.00431365
2 *392:Y 0.00017647
3 *205:16 0.0057126
4 *205:12 0.00157542
5 *205:16 *206:8 0.000718328
6 *392:A *205:12 9.23182e-05
7 *392:A *205:16 0.000242326
8 *3:93 *205:16 4.51176e-05
*RES
1 *392:Y *205:12 17.4454 
2 *205:12 *205:16 47.9107 
3 *205:16 empty 14.4733 
*END

*D_NET *206 0.0122794
*CONN
*P full O
*I *381:Y O *D sky130_fd_sc_hd__nor2_1
*CAP
1 full 0.00384185
2 *381:Y 0
3 *206:8 0.00578056
4 *206:6 0.00193871
5 *205:16 *206:8 0.000718328
*RES
1 *381:Y *206:6 13.7491 
2 *206:6 *206:8 57.6834 
3 *206:8 full 18.0782 
*END

*D_NET *208 0.00906503
*CONN
*I *468:A0 I *D sky130_fd_sc_hd__mux4_2
*I *632:Q O *D sky130_fd_sc_hd__edfxtp_1
*CAP
1 *468:A0 0
2 *632:Q 0.00222407
3 *208:32 0.00222407
4 *208:32 *369:A 1.64126e-05
5 *208:32 *397:A0 0.000325713
6 *208:32 *402:A1 0.000689791
7 *208:32 *435:B2 0.000153427
8 *208:32 *450:A3 2.82679e-05
9 *208:32 *536:A0 0.000191994
10 *208:32 *242:18 7.09666e-06
11 *208:32 *264:30 0.000168313
12 *208:32 *265:68 0.000251558
13 *208:32 *274:28 0.00148572
14 *208:32 *340:50 0.000110064
15 *208:32 *366:147 1.0713e-05
16 *48:30 *208:32 7.93381e-05
17 *60:62 *208:32 0.000168323
18 *64:10 *208:32 0
19 *94:26 *208:32 7.13655e-06
20 *143:14 *208:32 0.000913226
21 *185:26 *208:32 9.7886e-06
*RES
1 *632:Q *208:32 46.4696 
2 *208:32 *468:A0 9.24915 
*END

*D_NET *209 0.00719111
*CONN
*I *460:A0 I *D sky130_fd_sc_hd__mux4_2
*I *631:Q O *D sky130_fd_sc_hd__edfxtp_1
*CAP
1 *460:A0 0
2 *631:Q 0.000705432
3 *209:52 0.00162489
4 *209:32 0.00233032
5 *209:32 *684:CLK 5.9341e-05
6 *209:32 *242:18 4.00539e-05
7 *209:32 *288:40 0.000125341
8 *209:32 *290:22 0.000125512
9 *209:32 *313:20 0.000474158
10 *209:32 *313:52 4.15196e-05
11 *209:32 *322:48 7.34519e-05
12 *209:52 *460:A3 2.4968e-05
13 *209:52 *460:S1 6.08467e-05
14 *209:52 *216:12 6.40758e-05
15 *209:52 *273:30 7.26606e-05
16 *684:DE *209:32 0.000110081
17 *48:10 *209:52 0.00012857
18 *80:160 *209:52 0.00018702
19 *80:188 *209:32 3.99363e-05
20 *80:188 *209:52 0.000313923
21 *144:34 *209:52 0.000295744
22 *167:117 *209:32 0.000293266
*RES
1 *631:Q *209:32 47.0879 
2 *209:32 *209:52 44.9459 
3 *209:52 *460:A0 9.24915 
*END

*D_NET *210 0.00755166
*CONN
*I *452:A0 I *D sky130_fd_sc_hd__mux4_2
*I *630:Q O *D sky130_fd_sc_hd__edfxtp_1
*CAP
1 *452:A0 0.0003502
2 *630:Q 0.000376863
3 *210:20 0.0018708
4 *210:16 0.00189746
5 *452:A0 *452:A1 0.000207591
6 *452:A0 *452:A2 0.000352404
7 *452:A0 *452:A3 0.000112231
8 *452:A0 *452:S0 0.000210918
9 *210:16 *586:CLK 4.14014e-05
10 *210:16 *702:CLK 7.09666e-06
11 *210:16 *359:39 9.85056e-05
12 *210:16 *359:54 3.92776e-05
13 *210:20 *690:CLK 1.3044e-05
14 *210:20 *702:CLK 9.63718e-06
15 *210:20 *262:26 5.73423e-05
16 *210:20 *299:26 1.9101e-05
17 *210:20 *325:20 0.00087032
18 *210:20 *327:36 9.91931e-05
19 *210:20 *358:37 0
20 *559:DE *210:20 0
21 *596:DE *210:20 3.33173e-06
22 *655:DE *210:20 8.77951e-05
23 *31:46 *210:20 2.15389e-05
24 *36:14 *210:20 0
25 *155:68 *210:16 4.99151e-05
26 *155:68 *210:20 0.000133012
27 *156:87 *210:20 0
28 *156:101 *210:20 0.000163479
29 *162:35 *210:20 9.34958e-05
30 *162:50 *210:20 0.000153223
31 *162:79 *210:20 5.14628e-05
32 *183:40 *210:20 0.000161028
*RES
1 *630:Q *210:16 29.357 
2 *210:16 *210:20 44.5352 
3 *210:20 *452:A0 20.7029 
*END

*D_NET *211 0.0145698
*CONN
*I *434:A0 I *D sky130_fd_sc_hd__mux2i_1
*I *629:Q O *D sky130_fd_sc_hd__edfxtp_1
*CAP
1 *434:A0 0.000566647
2 *629:Q 0.00292678
3 *211:24 0.00349342
4 *434:A0 *434:A1 0.000166037
5 *434:A0 *437:A0 8.74868e-07
6 *434:A0 *451:A1 0.000375862
7 *434:A0 *451:A3 0.000130434
8 *434:A0 *451:S1 6.43715e-06
9 *434:A0 *226:36 9.39114e-06
10 *434:A0 *269:20 3.51083e-07
11 *434:A0 *296:28 0.000306817
12 *434:A0 *329:28 7.07415e-06
13 *211:24 *397:A0 0.000406879
14 *211:24 *407:A1 5.52466e-05
15 *211:24 *435:B2 0.000104754
16 *211:24 *437:A1 0.000574771
17 *211:24 *451:S0 4.14849e-05
18 *211:24 *451:S1 3.55731e-06
19 *211:24 *473:A1 0.000347677
20 *211:24 *558:CLK 5.56992e-06
21 *211:24 *228:40 0.00117884
22 *211:24 *269:20 0.000107022
23 *211:24 *275:36 1.85493e-05
24 *211:24 *285:34 0
25 *211:24 *327:58 1.16353e-05
26 *211:24 *328:52 2.1203e-06
27 *211:24 *329:32 0.000552894
28 *211:24 *331:30 3.97295e-05
29 *211:24 *366:26 5.45571e-05
30 *657:DE *211:24 0.00100587
31 *13:111 *211:24 0
32 *14:14 *211:24 0.00181435
33 *69:26 *211:24 0.000106353
34 *156:58 *211:24 5.70428e-05
35 *162:107 *211:24 0
36 *169:71 *211:24 5.31193e-05
37 *182:189 *211:24 3.12177e-05
38 *204:12 *211:24 6.43622e-06
*RES
1 *629:Q *211:24 49.9939 
2 *211:24 *434:A0 30.6064 
*END

*D_NET *212 0.0155137
*CONN
*I *414:A0 I *D sky130_fd_sc_hd__mux2i_1
*I *628:Q O *D sky130_fd_sc_hd__edfxtp_1
*CAP
1 *414:A0 0
2 *628:Q 0.00127385
3 *212:56 0.00113699
4 *212:46 0.00218899
5 *212:28 0.00232585
6 *212:28 *663:CLK 2.1387e-05
7 *212:28 *217:80 8.34466e-05
8 *212:28 *228:40 0.000699428
9 *212:28 *238:22 6.22684e-05
10 *212:28 *261:42 7.9849e-05
11 *212:28 *265:30 0.000156862
12 *212:28 *283:32 1.4379e-05
13 *212:46 *229:32 0.000834706
14 *212:46 *283:32 0.000108438
15 *212:46 *293:56 2.05513e-06
16 *212:46 *297:24 0.000306835
17 *212:46 *327:58 0.00010246
18 *212:56 *229:32 3.88655e-06
19 *212:56 *244:24 6.84784e-06
20 *212:56 *310:36 1.13341e-06
21 *212:56 *351:109 4.15236e-05
22 *11:44 *212:56 6.87503e-05
23 *13:35 *212:56 9.38827e-06
24 *13:62 *212:56 9.12416e-06
25 *21:18 *212:28 2.61955e-05
26 *31:28 *212:56 9.20637e-05
27 *69:26 *212:28 6.94808e-05
28 *71:24 *212:56 5.21758e-06
29 *77:14 *212:28 0.000685427
30 *157:131 *212:46 0.000939717
31 *158:39 *212:28 0.000108405
32 *160:142 *212:46 0.000208325
33 *162:87 *212:46 1.66626e-05
34 *162:93 *212:46 0.000286814
35 *167:167 *212:46 3.21156e-06
36 *169:8 *212:56 0.001297
37 *169:27 *212:46 1.24546e-05
38 *169:27 *212:56 0.00040615
39 *182:47 *212:56 0.000955751
40 *182:64 *212:56 0.00072873
41 *182:90 *212:56 0.000133607
*RES
1 *628:Q *212:28 46.6392 
2 *212:28 *212:46 37.4767 
3 *212:46 *212:56 49.3123 
4 *212:56 *414:A0 13.7491 
*END

*D_NET *213 0.00720478
*CONN
*I *407:A0 I *D sky130_fd_sc_hd__mux4_2
*I *627:Q O *D sky130_fd_sc_hd__edfxtp_1
*CAP
1 *407:A0 0.0010294
2 *627:Q 0.00127596
3 *213:20 0.00230536
4 *407:A0 *407:A3 4.23858e-05
5 *407:A0 *277:34 0.000177772
6 *407:A0 *334:54 1.4379e-05
7 *407:A0 *350:266 0.000403073
8 *213:20 *380:A 2.89094e-05
9 *213:20 *450:A1 0.000453114
10 *213:20 *258:24 0.000212697
11 *213:20 *263:22 0.000316369
12 *213:20 *263:34 8.88027e-05
13 *213:20 *270:24 0.000128292
14 *213:20 *290:22 8.06657e-05
15 *213:20 *291:26 2.86326e-05
16 *213:20 *296:28 0.000157277
17 *213:20 *366:53 0.00010626
18 *560:DE *213:20 4.86175e-05
19 *564:DE *213:20 6.40849e-05
20 *48:10 *213:20 0
21 *172:18 *213:20 0.000225501
22 *177:10 *213:20 1.72206e-05
*RES
1 *627:Q *213:20 46.1248 
2 *213:20 *407:A0 28.8922 
*END

*D_NET *214 0.00892488
*CONN
*I *543:A0 I *D sky130_fd_sc_hd__mux2i_1
*I *620:Q O *D sky130_fd_sc_hd__edfxtp_1
*CAP
1 *543:A0 6.00997e-05
2 *620:Q 0.00209993
3 *214:18 0.00216003
4 *543:A0 *569:CLK 6.08467e-05
5 *214:18 *543:A1 0.00157166
6 *214:18 *543:S 2.24518e-05
7 *214:18 *592:CLK 0
8 *214:18 *227:18 0
9 *214:18 *278:24 0.00142351
10 *214:18 *356:29 0
11 *214:18 *361:42 0
12 *428:A1 *543:A0 0
13 *428:A1 *214:18 8.66759e-05
14 *428:A2 *543:A0 5.04829e-06
15 *565:DE *214:18 0.000456804
16 *573:DE *214:18 3.07835e-05
17 *6:69 *214:18 6.21462e-05
18 *47:12 *543:A0 3.99086e-06
19 *152:20 *214:18 0.000168309
20 *155:146 *214:18 3.21119e-05
21 *158:135 *214:18 2.86008e-05
22 *161:74 *214:18 9.48696e-05
23 *167:86 *214:18 0.000213862
24 *168:28 *214:18 0.000260899
25 *168:38 *214:18 8.22431e-05
*RES
1 *620:Q *214:18 47.98 
2 *214:18 *543:A0 15.4612 
*END

*D_NET *215 0.0201261
*CONN
*I *477:A1 I *D sky130_fd_sc_hd__a221oi_1
*I *573:Q O *D sky130_fd_sc_hd__edfxtp_1
*CAP
1 *477:A1 0
2 *573:Q 0.00594814
3 *215:40 0.00594814
4 *215:40 *421:B2 0.000292131
5 *215:40 *699:CLK 2.99291e-05
6 *215:40 *225:34 0.000256093
7 *215:40 *255:32 0.00141721
8 *215:40 *259:28 0.000448229
9 *215:40 *261:34 1.55588e-05
10 *215:40 *334:54 0.000104209
11 *215:40 *350:285 4.75973e-05
12 *215:40 *350:297 7.86825e-06
13 *215:40 *350:408 0.000291107
14 *378:A *215:40 2.90636e-05
15 *378:D_N *215:40 0.000111286
16 *429:A1 *215:40 0.00123332
17 *478:B1 *215:40 7.86825e-06
18 *483:A1 *215:40 1.67867e-05
19 *485:B1_N *215:40 0.00267104
20 *486:A1 *215:40 5.85557e-05
21 *3:20 *215:40 1.2856e-05
22 *3:93 *215:40 0.000211819
23 *13:128 *215:40 9.29036e-06
24 *71:24 *215:40 1.5714e-05
25 *130:52 *215:40 0.000481285
26 *131:38 *215:40 2.57526e-05
27 *186:28 *215:40 0.000435229
*RES
1 *573:Q *215:40 43.4525 
2 *215:40 *477:A1 9.24915 
*END

*D_NET *216 0.0113124
*CONN
*I *467:A2 I *D sky130_fd_sc_hd__mux4_2
*I *572:Q O *D sky130_fd_sc_hd__edfxtp_1
*CAP
1 *467:A2 0
2 *572:Q 0.000722385
3 *216:46 0.00185881
4 *216:36 0.00300493
5 *216:12 0.00186851
6 *216:12 *460:S1 2.72812e-05
7 *216:12 *465:A2 6.64392e-05
8 *216:12 *248:34 4.48466e-05
9 *216:12 *251:36 4.00136e-05
10 *216:12 *254:22 3.53784e-05
11 *216:12 *265:68 0
12 *216:12 *273:30 6.22269e-05
13 *216:36 *431:A1 0.000585258
14 *216:36 *473:A0 0.000199378
15 *216:36 *477:B2 0.000177785
16 *216:36 *251:36 0.000241399
17 *216:36 *251:60 0
18 *216:36 *275:36 0
19 *216:46 *435:A1 0.000116986
20 *216:46 *477:B2 1.02764e-05
21 *216:46 *237:22 6.34914e-05
22 *216:46 *251:60 1.40384e-05
23 *216:46 *275:36 1.37925e-05
24 *216:46 *285:34 9.25476e-05
25 *216:46 *329:32 0
26 *216:46 *350:255 0.000519458
27 *216:46 *368:10 7.86847e-05
28 *410:B1 *216:46 9.43002e-05
29 *430:A2 *216:46 0.000131959
30 *433:B1 *216:46 0
31 *27:16 *216:46 1.52868e-05
32 *48:30 *216:46 0.000101133
33 *51:18 *216:36 0.000118288
34 *51:18 *216:46 0
35 *51:36 *216:36 0
36 *53:22 *216:46 0
37 *110:24 *216:36 0.000408963
38 *110:40 *216:12 0.000440899
39 *110:40 *216:36 2.32254e-05
40 *126:20 *216:12 2.60879e-06
41 *198:20 *216:12 1.91391e-05
42 *202:10 *216:36 4.69495e-06
43 *204:12 *216:36 4.46284e-06
44 *204:12 *216:46 3.94829e-05
45 *209:52 *216:12 6.40758e-05
*RES
1 *572:Q *216:12 31.9223 
2 *216:12 *216:36 33.4278 
3 *216:36 *216:46 46.977 
4 *216:46 *467:A2 13.7491 
*END

*D_NET *217 0.0178325
*CONN
*I *459:A2 I *D sky130_fd_sc_hd__mux4_2
*I *571:Q O *D sky130_fd_sc_hd__edfxtp_1
*CAP
1 *459:A2 0.000284674
2 *571:Q 0.00187368
3 *217:80 0.00187282
4 *217:62 0.00255579
5 *217:44 0.00284133
6 *459:A2 *350:157 7.63284e-05
7 *459:A2 *350:172 2.16355e-05
8 *217:44 *449:A0 0.000175767
9 *217:44 *465:A3 0.000373017
10 *217:44 *684:CLK 0.000188479
11 *217:44 *1196:A 1.43259e-05
12 *217:44 *225:34 0.000899801
13 *217:44 *242:18 0.000109896
14 *217:44 *247:28 0.000909178
15 *217:44 *274:28 0.000169453
16 *217:44 *295:22 9.17705e-05
17 *217:44 *299:90 0.000540002
18 *217:44 *313:52 0
19 *217:44 *350:389 6.71702e-05
20 *217:62 *234:32 0.000622098
21 *217:62 *290:22 0.000157199
22 *217:62 *313:52 2.44196e-05
23 *217:62 *321:22 0.000430904
24 *217:80 *432:A1 5.0702e-05
25 *217:80 *476:A1 0
26 *217:80 *476:S 7.20593e-05
27 *217:80 *234:32 2.16147e-05
28 *217:80 *234:56 9.8338e-05
29 *217:80 *261:42 0.000756809
30 *217:80 *300:22 2.46595e-05
31 *217:80 *321:46 0.00046349
32 *217:80 *334:24 8.43815e-05
33 *217:80 *350:172 7.86898e-05
34 *598:DE *217:80 5.75266e-05
35 *649:DE *217:44 0.000431438
36 *657:DE *217:80 0.0001252
37 *42:22 *217:80 0.000552828
38 *48:10 *217:44 0.000246765
39 *80:215 *217:44 3.36269e-05
40 *130:52 *217:62 3.32165e-06
41 *130:52 *217:80 0.000114881
42 *133:12 *217:44 5.4342e-05
43 *155:93 *217:62 2.65632e-05
44 *155:93 *217:80 0
45 *160:120 *217:44 0.000152091
46 *212:28 *217:80 8.34466e-05
*RES
1 *571:Q *217:44 45.6161 
2 *217:44 *217:62 40.9484 
3 *217:62 *217:80 47.3265 
4 *217:80 *459:A2 17.8002 
*END

*D_NET *218 0.0169284
*CONN
*I *451:A2 I *D sky130_fd_sc_hd__mux4_2
*I *570:Q O *D sky130_fd_sc_hd__edfxtp_1
*CAP
1 *451:A2 0
2 *570:Q 0.00307412
3 *218:56 0.00119378
4 *218:32 0.0042679
5 *218:32 *402:A1 4.73111e-05
6 *218:32 *467:A0 0
7 *218:32 *476:A0 6.04636e-05
8 *218:32 *570:CLK 4.45999e-05
9 *218:32 *219:38 6.21462e-05
10 *218:32 *245:20 1.50845e-06
11 *218:32 *253:58 0.00205634
12 *218:32 *350:106 4.27675e-05
13 *218:32 *350:206 0
14 *218:32 *350:240 6.25994e-05
15 *218:32 *364:61 1.58588e-05
16 *218:32 *364:92 1.33419e-05
17 *218:56 *380:A 0.000453574
18 *218:56 *431:A0 0.000114595
19 *218:56 *473:A0 1.88878e-05
20 *218:56 *625:CLK 0.000334399
21 *218:56 *251:60 2.93475e-05
22 *218:56 *277:34 2.42739e-05
23 *218:56 *291:26 3.34273e-05
24 *218:56 *318:16 1.86391e-05
25 *218:56 *333:26 3.68883e-05
26 *218:56 *366:110 0.000185002
27 *433:B1 *218:32 0.00022606
28 *443:B1 *218:32 0.000130777
29 *570:DE *218:32 0.000716803
30 *607:D *218:56 0.00010352
31 *42:22 *218:32 0.00233115
32 *51:18 *218:56 0.000323494
33 *51:36 *218:56 0.000491468
34 *53:22 *218:32 0
35 *53:22 *218:56 0.0001267
36 *60:62 *218:32 0
37 *66:20 *218:32 0
38 *76:16 *218:32 1.16906e-05
39 *82:66 *218:32 0.000135127
40 *93:30 *218:32 1.25085e-05
41 *182:197 *218:32 2.81678e-06
42 *182:197 *218:56 0
43 *186:28 *218:32 0.000124499
*RES
1 *570:Q *218:32 49.6369 
2 *218:32 *218:56 46.8847 
3 *218:56 *451:A2 9.24915 
*END

*D_NET *219 0.0170283
*CONN
*I *440:A1 I *D sky130_fd_sc_hd__a21oi_1
*I *569:Q O *D sky130_fd_sc_hd__edfxtp_1
*CAP
1 *440:A1 0.000661471
2 *569:Q 0.00307402
3 *219:38 0.0037355
4 *440:A1 *476:A0 7.37163e-05
5 *440:A1 *476:A1 0.00063805
6 *440:A1 *537:B2 0
7 *440:A1 *222:38 0.000127189
8 *219:38 *402:A1 5.51377e-06
9 *219:38 *476:A0 0.00208361
10 *219:38 *543:A1 2.2222e-05
11 *219:38 *590:CLK 2.91549e-05
12 *219:38 *636:CLK 3.17192e-06
13 *219:38 *661:CLK 1.04352e-05
14 *219:38 *229:32 0.000131696
15 *219:38 *270:24 0.0019096
16 *219:38 *282:40 9.28626e-05
17 *219:38 *297:24 0.000445401
18 *219:38 *301:30 5.60804e-05
19 *219:38 *317:22 3.39779e-05
20 *219:38 *336:159 3.17436e-05
21 *219:38 *340:50 3.35483e-05
22 *219:38 *347:51 0.000537141
23 *219:38 *347:134 0.000329072
24 *219:38 *365:63 0.000100163
25 *428:A1 *219:38 0.000130998
26 *497:A *440:A1 0
27 *11:140 *440:A1 0
28 *58:28 *440:A1 3.27704e-05
29 *59:6 *440:A1 9.18559e-06
30 *60:42 *219:38 3.17436e-05
31 *75:30 *219:38 5.54929e-05
32 *88:32 *219:38 0.000457911
33 *93:30 *219:38 0.00143378
34 *143:14 *440:A1 0.000140176
35 *148:28 *440:A1 7.12788e-06
36 *148:28 *219:38 0.00026204
37 *151:14 *219:38 6.00956e-05
38 *163:85 *219:38 0.000165018
39 *169:27 *219:38 1.44508e-05
40 *218:32 *219:38 6.21462e-05
*RES
1 *569:Q *219:38 44.465 
2 *219:38 *440:A1 32.2917 
*END

*D_NET *220 0.019163
*CONN
*I *424:A1 I *D sky130_fd_sc_hd__a221oi_1
*I *568:Q O *D sky130_fd_sc_hd__edfxtp_1
*CAP
1 *424:A1 0
2 *568:Q 0.00319913
3 *220:64 0.00216324
4 *220:28 0.00536238
5 *220:28 *379:A 5.57319e-06
6 *220:28 *457:A2 0.000238344
7 *220:28 *543:S 0.000428597
8 *220:28 *546:A0 1.5714e-05
9 *220:28 *662:CLK 2.16355e-05
10 *220:28 *1197:A 1.82501e-05
11 *220:28 *241:16 6.71457e-05
12 *220:28 *261:34 0.000567289
13 *220:28 *263:34 5.11322e-06
14 *220:28 *268:30 0.000131795
15 *220:28 *294:32 0.000557941
16 *220:28 *295:22 5.35941e-05
17 *220:28 *298:30 0.000155692
18 *220:28 *319:36 4.48499e-05
19 *220:28 *340:12 1.17811e-05
20 *220:28 *359:79 9.33816e-06
21 *220:64 *431:A0 0.000110182
22 *220:64 *431:A1 4.25507e-05
23 *220:64 *434:A1 6.08467e-05
24 *220:64 *266:28 0.000104754
25 *220:64 *269:20 4.13949e-05
26 *220:64 *313:20 4.28856e-07
27 *220:64 *318:16 7.26606e-05
28 *220:64 *329:28 2.1203e-06
29 *220:64 *334:54 0.000737187
30 *220:64 *351:542 3.61779e-05
31 *547:C1 *220:64 6.33975e-05
32 *593:D *220:28 0.000377777
33 *593:D *220:64 0.000123539
34 *604:DE *220:64 9.56015e-05
35 *662:DE *220:28 9.27913e-05
36 *13:35 *220:28 1.60578e-06
37 *42:12 *220:64 4.45999e-05
38 *49:12 *220:64 2.11837e-06
39 *55:20 *220:64 5.10353e-05
40 *69:26 *220:28 0.00107446
41 *70:30 *220:28 0.000994562
42 *70:30 *220:64 0.00023984
43 *81:69 *220:28 0.000473199
44 *89:8 *220:64 2.16355e-05
45 *110:40 *220:64 3.77568e-05
46 *118:20 *220:28 0
47 *125:28 *220:28 8.21523e-05
48 *125:28 *220:64 0.000202716
49 *148:28 *220:28 0.000225545
50 *155:44 *220:28 0.000480518
51 *168:63 *220:28 0.000182912
52 *168:101 *220:28 2.95375e-05
*RES
1 *568:Q *220:28 48.4232 
2 *220:28 *220:64 47.2911 
3 *220:64 *424:A1 9.24915 
*END

*D_NET *221 0.0104409
*CONN
*I *401:A1 I *D sky130_fd_sc_hd__a221oi_1
*I *567:Q O *D sky130_fd_sc_hd__edfxtp_1
*CAP
1 *401:A1 0.00154491
2 *567:Q 0.000967643
3 *221:26 0.00251255
4 *401:A1 *401:B2 5.00364e-05
5 *401:A1 *431:A1 0.00132033
6 *401:A1 *434:A1 9.27681e-05
7 *401:A1 *258:24 0.00177503
8 *401:A1 *270:24 0.000166786
9 *221:26 *242:18 7.75133e-06
10 *221:26 *365:10 0.000261787
11 *221:26 *366:57 8.18575e-05
12 *221:26 *366:79 0.000131356
13 *221:26 *366:88 9.12416e-06
14 dout[5] *401:A1 0.000107019
15 *401:C1 *401:A1 4.45999e-05
16 *411:B1 *401:A1 5.38612e-06
17 *416:A2 *401:A1 0.000668903
18 *429:A1 *401:A1 0.000159402
19 *462:A2 *401:A1 2.02035e-05
20 *667:D *221:26 1.02924e-05
21 *60:42 *221:26 6.33836e-05
22 *82:291 *401:A1 0.000143054
23 *82:291 *221:26 6.10124e-05
24 *160:120 *221:26 0.000160213
25 *169:96 *221:26 7.55464e-05
*RES
1 *567:Q *221:26 46.0607 
2 *221:26 *401:A1 23.1844 
*END

*D_NET *222 0.0155141
*CONN
*I *537:A1 I *D sky130_fd_sc_hd__a221oi_1
*I *675:Q O *D sky130_fd_sc_hd__edfxtp_1
*CAP
1 *537:A1 0
2 *675:Q 0.00222251
3 *222:38 0.00102696
4 *222:24 0.00324946
5 *222:24 *561:CLK 3.40922e-05
6 *222:24 *241:48 1.87619e-06
7 *222:24 *281:32 0.000886612
8 *222:24 *300:22 7.40684e-06
9 *222:38 *468:A3 0
10 *222:38 *476:A0 0
11 *222:38 *476:A1 0.000111708
12 *222:38 *537:B2 0.000141302
13 *425:A2 *222:38 0.000287857
14 *430:A2 *222:24 1.57481e-05
15 *440:A1 *222:38 0.000127189
16 *586:DE *222:24 0.000118513
17 *645:DE *222:38 0
18 *677:DE *222:38 0.00065669
19 *2:14 *222:24 0.000202933
20 *35:28 *222:24 1.68253e-05
21 *40:26 *222:38 9.64501e-06
22 *71:24 *222:24 5.74984e-05
23 *72:30 *222:24 0.000180302
24 *94:26 *222:24 0.00277996
25 *101:14 *222:38 0.000158371
26 *102:26 *222:24 0.00277047
27 *102:26 *222:38 1.5714e-05
28 *148:28 *222:38 1.99996e-05
29 *158:39 *222:38 0.000306805
30 *158:101 *222:24 3.76481e-05
31 *167:97 *222:24 6.20642e-05
32 *167:117 *222:24 7.943e-06
*RES
1 *675:Q *222:24 32.0267 
2 *222:24 *222:38 44.1491 
3 *222:38 *537:A1 9.24915 
*END

*D_NET *223 0.0026788
*CONN
*I *477:B2 I *D sky130_fd_sc_hd__a221oi_1
*I *580:Q O *D sky130_fd_sc_hd__edfxtp_1
*CAP
1 *477:B2 0.000911049
2 *580:Q 0.000911049
3 *477:B2 *473:A0 8.28712e-05
4 *477:B2 *277:34 5.03624e-05
5 *477:B2 *285:34 1.5714e-05
6 *477:B2 *318:16 0.000170334
7 *477:B2 *329:28 0.000298399
8 *51:18 *477:B2 5.09649e-05
9 *216:36 *477:B2 0.000177785
10 *216:46 *477:B2 1.02764e-05
*RES
1 *580:Q *477:B2 46.3794 
*END

*D_NET *224 0.00147856
*CONN
*I *467:A3 I *D sky130_fd_sc_hd__mux4_2
*I *579:Q O *D sky130_fd_sc_hd__edfxtp_1
*CAP
1 *467:A3 0.000459314
2 *579:Q 0.000459314
3 *467:A3 *450:A2 9.97479e-06
4 *467:A3 *1205:A 0.000184028
5 *467:A3 *264:30 0.000237225
6 *410:B1 *467:A3 0.000128702
*RES
1 *579:Q *467:A3 37.12 
*END

*D_NET *225 0.0192937
*CONN
*I *459:A3 I *D sky130_fd_sc_hd__mux4_2
*I *578:Q O *D sky130_fd_sc_hd__edfxtp_1
*CAP
1 *459:A3 0
2 *578:Q 0.00404791
3 *225:34 0.00404791
4 *225:34 *421:B2 5.55855e-05
5 *225:34 *457:A2 0.00140212
6 *225:34 *476:A1 6.42339e-05
7 *225:34 *247:28 0.000165632
8 *225:34 *260:26 4.28856e-07
9 *225:34 *285:34 1.42649e-05
10 *225:34 *294:32 0.000764846
11 *225:34 *299:60 6.45975e-05
12 *225:34 *313:52 0.000651395
13 *68:38 *225:34 0.000782895
14 *138:28 *225:34 0.000641774
15 *148:28 *225:34 5.94811e-05
16 *179:26 *225:34 0.000225591
17 *182:8 *225:34 5.5611e-06
18 *182:133 *225:34 1.23967e-05
19 *185:26 *225:34 0.00513122
20 *215:40 *225:34 0.000256093
21 *217:44 *225:34 0.000899801
*RES
1 *578:Q *225:34 46.3454 
2 *225:34 *459:A3 9.24915 
*END

*D_NET *226 0.0222049
*CONN
*I *451:A3 I *D sky130_fd_sc_hd__mux4_2
*I *577:Q O *D sky130_fd_sc_hd__edfxtp_1
*CAP
1 *451:A3 0.000116973
2 *577:Q 0.00420506
3 *226:36 0.00432203
4 *451:A3 *380:A 0.000110306
5 *451:A3 *269:20 0.000117176
6 *226:36 *401:B2 0.000660143
7 *226:36 *620:CLK 1.03403e-05
8 *226:36 *269:20 7.76066e-05
9 *226:36 *277:34 0.00107247
10 *226:36 *288:40 0.000323396
11 *226:36 *296:28 0.000378114
12 *226:36 *304:30 0.000553459
13 *226:36 *310:36 0.00305355
14 *226:36 *311:28 0.00144965
15 *226:36 *343:18 0.000333868
16 *434:A0 *451:A3 0.000130434
17 *434:A0 *226:36 9.39114e-06
18 *604:DE *226:36 0.000234478
19 *616:D *226:36 9.54494e-05
20 *649:DE *226:36 0.00268121
21 *12:26 *226:36 2.85959e-05
22 *31:46 *226:36 4.94211e-05
23 *35:28 *226:36 0.000347013
24 *80:110 *226:36 0.000558742
25 *81:202 *226:36 0.000470102
26 *87:30 *226:36 5.01449e-06
27 *94:26 *226:36 0.000159964
28 *102:26 *226:36 0.000166453
29 *125:28 *226:36 6.2753e-05
30 *144:34 *226:36 0.000157671
31 *151:14 *226:36 3.29441e-05
32 *158:69 *226:36 1.50804e-05
33 *164:26 *226:36 0.000129091
34 *167:86 *226:36 8.69254e-05
*RES
1 *577:Q *226:36 47.6982 
2 *226:36 *451:A3 17.6896 
*END

*D_NET *227 0.00501649
*CONN
*I *438:A3 I *D sky130_fd_sc_hd__a31oi_1
*I *576:Q O *D sky130_fd_sc_hd__edfxtp_1
*CAP
1 *438:A3 0.000415009
2 *576:Q 0.00165125
3 *227:18 0.00206626
4 *438:A3 *305:32 2.34172e-05
5 *227:18 *683:CLK 1.03403e-05
6 *227:18 *278:24 6.36477e-05
7 *227:18 *305:32 0.00016863
8 *227:18 *337:8 2.50317e-05
9 *227:18 *356:16 0.000491224
10 *227:18 *356:29 6.28484e-05
11 *485:B1_N *227:18 1.66771e-05
12 *573:DE *227:18 0
13 *683:DE *227:18 6.89724e-06
14 *160:172 *227:18 0
15 *166:57 *438:A3 1.52483e-05
16 *166:57 *227:18 0
17 *214:18 *227:18 0
*RES
1 *576:Q *227:18 49.8594 
2 *227:18 *438:A3 24.7055 
*END

*D_NET *228 0.020581
*CONN
*I *424:B2 I *D sky130_fd_sc_hd__a221oi_1
*I *575:Q O *D sky130_fd_sc_hd__edfxtp_1
*CAP
1 *424:B2 0
2 *575:Q 0.00539995
3 *228:40 0.00539995
4 *228:40 *437:A1 0.0025903
5 *228:40 *467:A0 0.000201215
6 *228:40 *1204:A 0.000244643
7 *228:40 *239:16 4.19439e-05
8 *228:40 *286:18 7.98886e-05
9 *228:40 *293:56 9.58351e-05
10 *228:40 *297:46 5.94052e-06
11 *228:40 *328:32 1.34851e-05
12 *228:40 *331:30 1.88266e-05
13 *228:40 *350:57 5.18851e-05
14 *228:40 *350:328 3.17436e-05
15 *228:40 *362:18 0
16 dout[5] *228:40 0.000277337
17 *401:C1 *228:40 0.00155145
18 *408:A2 *228:40 6.34419e-05
19 *410:A1 *228:40 6.78278e-05
20 *416:A2 *228:40 2.70083e-05
21 *462:A1 *228:40 0.000261851
22 *643:DE *228:40 3.08347e-06
23 *657:DE *228:40 3.58398e-05
24 *5:24 *228:40 0.000281475
25 *42:12 *228:40 6.34419e-05
26 *77:14 *228:40 0.00141791
27 *131:38 *228:40 1.48429e-05
28 *166:113 *228:40 5.51077e-05
29 *182:189 *228:40 0.00040651
30 *211:24 *228:40 0.00117884
31 *212:28 *228:40 0.000699428
*RES
1 *575:Q *228:40 47.1812 
2 *228:40 *424:B2 9.24915 
*END

*D_NET *229 0.0169972
*CONN
*I *401:B2 I *D sky130_fd_sc_hd__a221oi_1
*I *574:Q O *D sky130_fd_sc_hd__edfxtp_1
*CAP
1 *401:B2 0.0036393
2 *574:Q 0.00110846
3 *229:32 0.00474776
4 *401:B2 *431:A1 0.000217662
5 *401:B2 *434:S 1.0973e-05
6 *401:B2 *441:A1 0.00083787
7 *401:B2 *255:32 5.83513e-05
8 *401:B2 *258:24 8.41713e-05
9 *401:B2 *270:24 0.000740562
10 *229:32 *661:CLK 5.46889e-05
11 *229:32 *244:24 0.00010285
12 *229:32 *289:20 0.000110297
13 *229:32 *292:24 4.03324e-05
14 *229:32 *297:24 4.97935e-05
15 *229:32 *347:134 1.05272e-06
16 *229:32 *351:109 0.000172166
17 *401:A1 *401:B2 5.00364e-05
18 *401:C1 *401:B2 2.02995e-05
19 *429:A1 *401:B2 8.75824e-06
20 *461:A3 *229:32 2.03809e-05
21 *49:12 *401:B2 0.000116276
22 *55:20 *401:B2 4.33815e-05
23 *60:42 *401:B2 3.65589e-05
24 *75:30 *229:32 0.000133334
25 *80:215 *401:B2 0.000477389
26 *81:202 *401:B2 0.000110829
27 *87:30 *401:B2 0.000553276
28 *125:28 *401:B2 0.000258088
29 *157:131 *229:32 2.49093e-05
30 *161:125 *401:B2 5.29521e-05
31 *162:87 *229:32 0.000471606
32 *163:58 *229:32 0.000149695
33 *163:85 *229:32 9.4763e-05
34 *169:27 *229:32 0.000752231
35 *182:90 *229:32 1.5714e-05
36 *212:46 *229:32 0.000834706
37 *212:56 *229:32 3.88655e-06
38 *219:38 *229:32 0.000131696
39 *226:36 *401:B2 0.000660143
*RES
1 *574:Q *229:32 48.4145 
2 *229:32 *401:B2 30.5137 
*END

*D_NET *230 0.00149972
*CONN
*I *537:B2 I *D sky130_fd_sc_hd__a221oi_1
*I *674:Q O *D sky130_fd_sc_hd__edfxtp_1
*CAP
1 *537:B2 0.000385957
2 *674:Q 0.000385957
3 *537:B2 *468:S0 3.98869e-05
4 *537:B2 *476:A0 0.000108915
5 *537:B2 *273:30 2.01503e-05
6 *537:B2 *285:34 2.26985e-05
7 *440:A1 *537:B2 0
8 *497:A *537:B2 9.96332e-05
9 *11:140 *537:B2 3.02534e-05
10 *102:26 *537:B2 0.000129098
11 *123:32 *537:B2 0.000111722
12 *148:28 *537:B2 2.41483e-05
13 *222:38 *537:B2 0.000141302
*RES
1 *674:Q *537:B2 39.247 
*END

*D_NET *231 0.0161609
*CONN
*I *473:A0 I *D sky130_fd_sc_hd__mux2i_1
*I *587:Q O *D sky130_fd_sc_hd__edfxtp_1
*CAP
1 *473:A0 0.00076855
2 *587:Q 0.00175761
3 *231:38 0.00193016
4 *231:28 0.00291922
5 *473:A0 *251:60 0.000219809
6 *473:A0 *366:110 0
7 *231:28 *449:A0 0.000330825
8 *231:28 *449:A2 1.94236e-05
9 *231:28 *262:26 0.000152349
10 *231:28 *266:28 5.95452e-06
11 *231:28 *277:34 0.000765337
12 *231:28 *295:22 0.000656747
13 *231:28 *304:30 0.000571594
14 *231:28 *350:545 1.05601e-05
15 *231:38 *434:S 1.66771e-05
16 *231:38 *465:S0 0.000352805
17 *231:38 *540:B2 0.000335699
18 *231:38 *546:A0 0
19 *231:38 *251:36 1.42903e-05
20 *231:38 *263:34 0
21 *231:38 *266:28 0.000377212
22 *231:38 *302:24 1.13617e-05
23 *393:A2 *231:28 8.26385e-06
24 *454:A1 *231:28 0.000177764
25 *477:B2 *473:A0 8.28712e-05
26 *486:A1 *231:28 0.000108463
27 *605:D *231:38 0.000250254
28 *4:26 *231:28 0.000310212
29 *11:60 *231:28 0.000848995
30 *31:58 *231:38 0.00105806
31 *36:14 *231:28 2.41076e-06
32 *51:18 *473:A0 0.000105649
33 *51:38 *231:38 8.01371e-05
34 *54:22 *231:28 0.00052329
35 *110:24 *473:A0 0.000110306
36 *131:38 *231:28 8.20799e-06
37 *131:38 *231:38 4.6735e-05
38 *136:20 *231:38 5.79001e-05
39 *144:34 *231:28 0.000219506
40 *182:152 *231:38 2.02035e-05
41 *182:167 *231:38 0.000707202
42 *216:36 *473:A0 0.000199378
43 *218:56 *473:A0 1.88878e-05
*RES
1 *587:Q *231:28 28.1963 
2 *231:28 *231:38 49.1802 
3 *231:38 *473:A0 32.7417 
*END

*D_NET *232 0.00686048
*CONN
*I *465:A0 I *D sky130_fd_sc_hd__mux4_2
*I *586:Q O *D sky130_fd_sc_hd__edfxtp_1
*CAP
1 *465:A0 0.00140943
2 *586:Q 0.00112851
3 *232:20 0.00253795
4 *465:A0 *421:A1 0.000244332
5 *465:A0 *465:A1 0.00071239
6 *232:20 *251:36 4.45999e-05
7 *232:20 *265:68 6.1096e-05
8 *455:A1 *232:20 0
9 *617:D *465:A0 5.91398e-05
10 *55:20 *465:A0 0.000566288
11 *80:150 *232:20 6.34027e-05
12 *110:40 *232:20 2.37056e-05
13 *197:10 *465:A0 9.63731e-06
*RES
1 *586:Q *232:20 42.8185 
2 *232:20 *465:A0 46.4711 
*END

*D_NET *233 0.00704463
*CONN
*I *457:A0 I *D sky130_fd_sc_hd__mux4_2
*I *585:Q O *D sky130_fd_sc_hd__edfxtp_1
*CAP
1 *457:A0 0
2 *585:Q 0.00170829
3 *233:34 0.00170829
4 *233:34 *251:24 0.000563716
5 *233:34 *271:26 0.00043648
6 *233:34 *279:62 8.81531e-05
7 *233:34 *299:90 2.1203e-06
8 *233:34 *302:24 1.99543e-06
9 *233:34 *304:30 6.64392e-05
10 *233:34 *336:58 0.000116084
11 *233:34 *350:389 7.17919e-05
12 *233:34 *358:16 4.26467e-05
13 *393:A2 *233:34 0.00111432
14 *429:A1 *233:34 0.000150941
15 *454:B1 *233:34 0.000113292
16 *485:B1_N *233:34 0.000147312
17 *649:DE *233:34 3.13982e-05
18 *21:20 *233:34 7.20173e-06
19 *48:10 *233:34 7.10451e-05
20 *54:22 *233:34 0.000423238
21 *75:30 *233:34 4.75721e-06
22 *81:150 *233:34 8.41516e-05
23 *132:22 *233:34 6.3657e-05
24 *133:12 *233:34 0
25 *182:152 *233:34 2.73131e-05
*RES
1 *585:Q *233:34 46.0704 
2 *233:34 *457:A0 9.24915 
*END

*D_NET *234 0.00969618
*CONN
*I *450:A0 I *D sky130_fd_sc_hd__mux4_2
*I *584:Q O *D sky130_fd_sc_hd__edfxtp_1
*CAP
1 *450:A0 0
2 *584:Q 0.000898209
3 *234:56 0.00150012
4 *234:32 0.00239833
5 *234:32 *261:34 7.69915e-06
6 *234:32 *261:42 0.0002158
7 *234:32 *293:42 0.000188874
8 *234:32 *321:22 7.23997e-05
9 *234:56 *380:A 3.61767e-05
10 *234:56 *397:A0 7.71503e-05
11 *234:56 *450:A3 0.000402622
12 *234:56 *261:42 8.75504e-05
13 *234:56 *263:22 6.37652e-06
14 *234:56 *265:68 0.000384063
15 *234:56 *275:36 0.00100917
16 *234:56 *321:46 0.000231479
17 *234:56 *340:50 1.57481e-05
18 *48:30 *234:56 0
19 *60:62 *234:56 0.000691806
20 *130:52 *234:56 0.000312592
21 *155:93 *234:32 0.000299814
22 *160:142 *234:32 3.24705e-06
23 *167:117 *234:32 7.20738e-05
24 *182:197 *234:56 1.99697e-05
25 *188:30 *234:32 2.28591e-05
26 *217:62 *234:32 0.000622098
27 *217:80 *234:32 2.16147e-05
28 *217:80 *234:56 9.8338e-05
*RES
1 *584:Q *234:32 49.0858 
2 *234:32 *234:56 41.6945 
3 *234:56 *450:A0 9.24915 
*END

*D_NET *235 0.00300494
*CONN
*I *441:A0 I *D sky130_fd_sc_hd__mux2i_1
*I *583:Q O *D sky130_fd_sc_hd__edfxtp_1
*CAP
1 *441:A0 0
2 *583:Q 0.000801169
3 *235:24 0.000801169
4 *235:24 *441:S 0.000254711
5 *235:24 *590:CLK 2.07503e-05
6 *235:24 *267:28 0.000160197
7 *235:24 *293:56 0.00046218
8 *235:24 *323:32 3.21004e-06
9 *590:DE *235:24 3.39728e-05
10 *60:42 *235:24 1.65872e-05
11 *158:53 *235:24 0.000450992
*RES
1 *583:Q *235:24 41.6204 
2 *235:24 *441:A0 9.24915 
*END

*D_NET *236 0.0187595
*CONN
*I *420:A0 I *D sky130_fd_sc_hd__mux2i_1
*I *582:Q O *D sky130_fd_sc_hd__edfxtp_1
*CAP
1 *420:A0 0.000143774
2 *582:Q 0.00359245
3 *236:32 0.00373623
4 *420:A0 *420:A1 0.000104004
5 *236:32 *467:A1 3.75221e-05
6 *236:32 *261:34 0.000418293
7 *236:32 *279:62 1.4091e-06
8 *236:32 *294:32 0.00077399
9 *236:32 *299:60 0.000129091
10 *236:32 *313:52 3.32404e-05
11 *236:32 *321:46 0.00111345
12 *236:32 *325:20 1.5714e-05
13 *410:A1 *236:32 3.17436e-05
14 *446:A2 *236:32 9.84424e-06
15 *485:B1_N *236:32 0.000116159
16 *596:DE *236:32 0.000124538
17 *671:DE *236:32 9.34685e-05
18 *19:26 *236:32 4.03324e-05
19 *38:16 *420:A0 0.000260343
20 *40:26 *236:32 0.000179341
21 *53:22 *236:32 4.57321e-06
22 *54:22 *236:32 0.00375173
23 *75:30 *236:32 0.00226265
24 *93:30 *236:32 0.000845101
25 *160:37 *236:32 0.000530652
26 *160:56 *236:32 0.000373465
27 *178:12 *236:32 3.63593e-05
*RES
1 *582:Q *236:32 48.9966 
2 *236:32 *420:A0 14.2767 
*END

*D_NET *237 0.00407553
*CONN
*I *402:A0 I *D sky130_fd_sc_hd__mux4_2
*I *581:Q O *D sky130_fd_sc_hd__edfxtp_1
*CAP
1 *402:A0 0
2 *581:Q 0.00106079
3 *237:22 0.00106079
4 *237:22 *402:A1 9.12416e-06
5 *237:22 *640:CLK 3.08993e-05
6 *237:22 *326:14 3.64611e-05
7 *237:22 *350:206 0.000162739
8 *410:B1 *237:22 6.64386e-05
9 *640:DE *237:22 4.00149e-05
10 *19:26 *237:22 0.000301441
11 *48:30 *237:22 0.000587344
12 *64:10 *237:22 0.000656001
13 *216:46 *237:22 6.34914e-05
*RES
1 *581:Q *237:22 46.3235 
2 *237:22 *402:A0 9.24915 
*END

*D_NET *238 0.00744437
*CONN
*I *539:A0 I *D sky130_fd_sc_hd__mux2i_1
*I *673:Q O *D sky130_fd_sc_hd__edfxtp_1
*CAP
1 *539:A0 0.000180773
2 *673:Q 0.00149038
3 *238:22 0.00167116
4 *539:A0 *539:A1 1.85244e-05
5 *539:A0 *539:S 6.08467e-05
6 *539:A0 *643:CLK 2.19049e-05
7 *539:A0 *289:20 1.29759e-05
8 *539:A0 *332:32 0.000129601
9 *539:A0 *365:75 4.9e-05
10 *238:22 *432:A1 3.75221e-05
11 *238:22 *457:A2 0.000110507
12 *238:22 *476:A1 2.61038e-05
13 *238:22 *539:A1 6.53597e-05
14 *238:22 *239:16 2.59159e-05
15 *238:22 *265:30 0.000124395
16 *238:22 *272:40 0.000992826
17 *238:22 *294:32 1.5714e-05
18 *238:22 *327:58 0.000176885
19 *238:22 *368:31 0.000100836
20 *238:22 *368:35 8.38074e-05
21 *238:22 *368:99 3.55732e-05
22 *238:22 *368:107 5.50873e-05
23 *238:22 *368:116 1.29445e-05
24 *410:A2 *238:22 0.000100501
25 *461:A0 *539:A0 0.000197163
26 *582:DE *238:22 0.000200456
27 *13:96 *238:22 0.000998335
28 *76:16 *539:A0 0
29 *158:39 *238:22 0
30 *169:71 *238:22 0.000387008
31 *212:28 *238:22 6.22684e-05
*RES
1 *673:Q *238:22 47.7023 
2 *238:22 *539:A0 23.2762 
*END

*D_NET *239 0.0110696
*CONN
*I *473:A1 I *D sky130_fd_sc_hd__mux2i_1
*I *594:Q O *D sky130_fd_sc_hd__edfxtp_1
*CAP
1 *473:A1 0.000502171
2 *594:Q 0.00295353
3 *239:16 0.0034557
4 *473:A1 *407:A1 6.98084e-05
5 *473:A1 *251:60 0
6 *473:A1 *329:32 0.00014688
7 *239:16 *450:A2 0.000581691
8 *239:16 *467:A0 0.00015197
9 *239:16 *644:CLK 0.000118329
10 *239:16 *307:32 0.000817542
11 *239:16 *331:30 0.000329992
12 *239:16 *368:107 0.000173184
13 *239:16 *368:116 0.000170126
14 dout[5] *239:16 6.39108e-05
15 *433:A2 *239:16 9.88537e-05
16 *20:20 *239:16 5.15454e-05
17 *27:16 *473:A1 0
18 *35:28 *239:16 0.000105053
19 *54:22 *239:16 0.000235785
20 *82:66 *239:16 2.87995e-06
21 *158:39 *239:16 0.000605589
22 *182:189 *473:A1 1.94916e-05
23 *211:24 *473:A1 0.000347677
24 *228:40 *239:16 4.19439e-05
25 *238:22 *239:16 2.59159e-05
*RES
1 *594:Q *239:16 38.8208 
2 *239:16 *473:A1 27.724 
*END

*D_NET *240 0.00509132
*CONN
*I *465:A1 I *D sky130_fd_sc_hd__mux4_2
*I *593:Q O *D sky130_fd_sc_hd__edfxtp_1
*CAP
1 *465:A1 0.000411294
2 *593:Q 0.000532144
3 *240:16 0.000943438
4 *465:A1 *465:S1 0.000254532
5 *240:16 *421:A1 0.000872821
6 *240:16 *466:S0 5.99699e-05
7 *465:A0 *465:A1 0.00071239
8 *547:C1 *240:16 3.08993e-05
9 *20:32 *240:16 7.14746e-05
10 *39:10 *240:16 0.000859936
11 *55:20 *240:16 0
12 *134:10 *240:16 0.000342425
*RES
1 *593:Q *240:16 41.9177 
2 *240:16 *465:A1 21.0646 
*END

*D_NET *241 0.0174638
*CONN
*I *457:A1 I *D sky130_fd_sc_hd__mux4_2
*I *592:Q O *D sky130_fd_sc_hd__edfxtp_1
*CAP
1 *457:A1 0.000783748
2 *592:Q 0.00100456
3 *241:48 0.0031539
4 *241:16 0.00337471
5 *457:A1 *457:S1 6.64392e-05
6 *457:A1 *479:S0 9.34726e-05
7 *457:A1 *251:24 0.000170311
8 *457:A1 *257:38 0.000114139
9 *457:A1 *271:26 5.33358e-06
10 *457:A1 *279:62 5.67796e-06
11 *457:A1 *293:24 9.05391e-05
12 *457:A1 *304:30 0.000367103
13 *457:A1 *314:26 0.00017403
14 *241:16 *613:CLK 0.000540238
15 *241:16 *665:CLK 3.31745e-05
16 *241:16 *330:12 0.000170355
17 *241:16 *346:32 6.02259e-05
18 *241:16 *356:85 0.000599769
19 *241:16 *356:87 0.000256037
20 *241:48 *379:B 7.24513e-05
21 *241:48 *397:A0 0.000284385
22 *241:48 *420:A1 0.000382477
23 *241:48 *288:40 7.6276e-06
24 *241:48 *293:24 0.000216805
25 *241:48 *322:48 8.76387e-05
26 *241:48 *346:62 4.35662e-05
27 *480:B *457:A1 4.26679e-05
28 *483:A1 *457:A1 7.44969e-06
29 *571:DE *457:A1 0.000142229
30 *572:DE *457:A1 1.87952e-05
31 *578:DE *241:48 1.40158e-05
32 *586:DE *241:48 0.00042501
33 *611:D *241:48 9.00905e-06
34 *12:30 *241:48 4.8317e-05
35 *13:35 *241:48 0.000354352
36 *23:26 *457:A1 2.12346e-05
37 *23:26 *241:48 0
38 *31:28 *241:48 4.54865e-05
39 *31:46 *241:48 0.000533029
40 *80:93 *241:48 4.4492e-05
41 *80:110 *241:48 1.58137e-05
42 *81:177 *241:48 5.22884e-05
43 *82:155 *241:16 7.51433e-06
44 *118:20 *241:16 0
45 *132:22 *457:A1 6.64392e-05
46 *155:44 *241:16 3.96379e-05
47 *155:44 *241:48 8.36586e-06
48 *155:93 *241:48 2.1203e-06
49 *158:69 *241:48 0.000185885
50 *158:101 *241:48 0.00128075
51 *160:56 *457:A1 3.08056e-05
52 *160:81 *457:A1 6.88944e-05
53 *160:81 *241:48 0.000349438
54 *164:30 *241:16 0.000278346
55 *168:38 *241:16 0.000646294
56 *182:14 *457:A1 0.000150089
57 *182:133 *457:A1 0.000331488
58 *188:30 *241:48 1.58108e-05
59 *220:28 *241:16 6.71457e-05
60 *222:24 *241:48 1.87619e-06
*RES
1 *592:Q *241:16 49.4536 
2 *241:16 *241:48 47.7586 
3 *241:48 *457:A1 38.3918 
*END

*D_NET *242 0.0105705
*CONN
*I *450:A1 I *D sky130_fd_sc_hd__mux4_2
*I *591:Q O *D sky130_fd_sc_hd__edfxtp_1
*CAP
1 *450:A1 0.000804002
2 *591:Q 0.00203314
3 *242:18 0.00283714
4 *450:A1 *380:A 8.31531e-05
5 *450:A1 *275:36 7.62354e-06
6 *450:A1 *291:26 0.000182585
7 *242:18 *450:A3 8.09221e-05
8 *242:18 *703:CLK 2.16355e-05
9 *242:18 *287:24 6.15246e-05
10 *242:18 *319:36 9.15456e-05
11 *242:18 *322:48 0.000340355
12 *242:18 *366:88 0
13 *242:18 *366:147 0
14 *410:A1 *450:A1 0.000111802
15 *634:DE *242:18 0.000126967
16 *703:D *242:18 2.77625e-06
17 *48:10 *242:18 2.09027e-05
18 *60:62 *450:A1 0.000427522
19 *70:30 *242:18 0.0016829
20 *80:188 *242:18 0.000175351
21 *80:215 *242:18 0.000127444
22 *82:291 *242:18 0.000164579
23 *148:28 *242:18 0.000105586
24 *156:77 *242:18 9.54639e-05
25 *156:81 *242:18 1.35698e-05
26 *156:87 *242:18 4.01016e-05
27 *160:120 *242:18 2.16003e-05
28 *167:117 *242:18 5.88059e-05
29 *169:107 *242:18 0.000120285
30 *172:18 *450:A1 0.00011326
31 *208:32 *242:18 7.09666e-06
32 *209:32 *242:18 4.00539e-05
33 *213:20 *450:A1 0.000453114
34 *217:44 *242:18 0.000109896
35 *221:26 *242:18 7.75133e-06
*RES
1 *591:Q *242:18 48.8324 
2 *242:18 *450:A1 43.3376 
*END

*D_NET *243 0.00422029
*CONN
*I *441:A1 I *D sky130_fd_sc_hd__mux2i_1
*I *590:Q O *D sky130_fd_sc_hd__edfxtp_1
*CAP
1 *441:A1 0.000810503
2 *590:Q 0.000810503
3 *441:A1 *379:B 0.000214047
4 *441:A1 *267:28 7.50443e-05
5 *441:A1 *268:30 4.69495e-06
6 *441:A1 *319:36 1.5714e-05
7 *441:A1 *336:134 3.88415e-05
8 *441:A1 *340:50 1.40632e-05
9 *401:B2 *441:A1 0.00083787
10 *60:42 *441:A1 6.85758e-05
11 *161:108 *441:A1 0.000129091
12 *161:125 *441:A1 0.0011662
13 *170:107 *441:A1 3.51505e-05
*RES
1 *590:Q *441:A1 40.1273 
*END

*D_NET *244 0.00756367
*CONN
*I *420:A1 I *D sky130_fd_sc_hd__mux2i_1
*I *589:Q O *D sky130_fd_sc_hd__edfxtp_1
*CAP
1 *420:A1 0.000740662
2 *589:Q 0.000936751
3 *244:24 0.00167741
4 *420:A1 *438:A2 0.000156955
5 *244:24 *539:S 1.69574e-05
6 *244:24 *1197:A 0.000264029
7 *244:24 *298:30 0.000254358
8 *244:24 *301:30 4.33309e-05
9 *244:24 *347:51 5.48634e-05
10 *420:A0 *420:A1 0.000104004
11 *461:A3 *244:24 0.000137302
12 *608:D *420:A1 0.000620438
13 *611:D *420:A1 4.21171e-06
14 *611:D *244:24 1.85244e-05
15 *659:DE *244:24 0.000175659
16 *11:38 *244:24 3.96709e-05
17 *11:44 *244:24 8.71501e-05
18 *13:35 *420:A1 0.00042583
19 *13:62 *420:A1 4.03007e-05
20 *56:28 *420:A1 2.27135e-05
21 *57:26 *420:A1 7.58321e-05
22 *75:30 *244:24 0.000152957
23 *149:22 *420:A1 7.48886e-05
24 *155:44 *420:A1 3.64497e-06
25 *167:167 *244:24 0.000133323
26 *169:8 *420:A1 0.000559695
27 *169:8 *244:24 4.16822e-05
28 *169:27 *244:24 0.000208346
29 *212:56 *244:24 6.84784e-06
30 *229:32 *244:24 0.00010285
31 *241:48 *420:A1 0.000382477
*RES
1 *589:Q *244:24 44.8567 
2 *244:24 *420:A1 42.0982 
*END

*D_NET *245 0.0122407
*CONN
*I *402:A1 I *D sky130_fd_sc_hd__mux4_2
*I *588:Q O *D sky130_fd_sc_hd__edfxtp_1
*CAP
1 *402:A1 0.00139634
2 *588:Q 0.00178132
3 *245:20 0.00317766
4 *402:A1 *369:A 7.10834e-05
5 *402:A1 *476:A0 4.44916e-06
6 *402:A1 *264:30 0
7 *402:A1 *326:14 0
8 *245:20 *417:A0 0.000737797
9 *245:20 *458:A1 0.000661817
10 *245:20 *495:A1 2.20365e-05
11 *245:20 *1173:A 5.04829e-06
12 *245:20 *281:32 2.27135e-05
13 *245:20 *297:46 0.00013082
14 *245:20 *350:68 0.000307248
15 *245:20 *350:91 7.7711e-05
16 *245:20 *350:106 0.000343534
17 *245:20 *351:6 5.51483e-06
18 *245:20 *351:109 9.06436e-05
19 *461:A3 *245:20 0.00037198
20 *42:22 *402:A1 6.89089e-05
21 *54:22 *245:20 3.89332e-06
22 *64:10 *402:A1 7.0714e-05
23 *94:26 *402:A1 0.00116936
24 *111:24 *245:20 8.46605e-05
25 *143:14 *402:A1 2.38446e-05
26 *155:198 *245:20 3.55607e-05
27 *170:41 *245:20 0.000111709
28 *178:12 *402:A1 0
29 *179:26 *402:A1 2.97962e-05
30 *179:26 *245:20 0.000508442
31 *182:90 *245:20 0.000131438
32 *186:28 *245:20 4.14165e-05
33 *208:32 *402:A1 0.000689791
34 *218:32 *402:A1 4.73111e-05
35 *218:32 *245:20 1.50845e-06
36 *219:38 *402:A1 5.51377e-06
37 *237:22 *402:A1 9.12416e-06
*RES
1 *588:Q *245:20 49.8531 
2 *245:20 *402:A1 25.6656 
*END

*D_NET *246 0.00393806
*CONN
*I *539:A1 I *D sky130_fd_sc_hd__mux2i_1
*I *672:Q O *D sky130_fd_sc_hd__edfxtp_1
*CAP
1 *539:A1 0.000909838
2 *672:Q 0.000909838
3 *539:A1 *581:CLK 1.33419e-05
4 *539:A1 *293:56 0.000214882
5 *539:A1 *309:32 0.0001154
6 *539:A1 *327:58 7.07342e-06
7 *539:A1 *365:75 8.2476e-06
8 *461:A0 *539:A1 4.12833e-05
9 *539:A0 *539:A1 1.85244e-05
10 *581:DE *539:A1 3.75221e-05
11 *130:52 *539:A1 0.00112542
12 *158:39 *539:A1 0.000459049
13 *169:71 *539:A1 1.22858e-05
14 *238:22 *539:A1 6.53597e-05
*RES
1 *672:Q *539:A1 46.2309 
*END

*D_NET *247 0.0177331
*CONN
*I *474:A1 I *D sky130_fd_sc_hd__a221oi_1
*I *601:Q O *D sky130_fd_sc_hd__edfxtp_1
*CAP
1 *474:A1 0
2 *601:Q 0.00421936
3 *247:28 0.00421936
4 *247:28 *405:A 0.000175348
5 *247:28 *418:A1 6.45333e-05
6 *247:28 *450:A2 7.08723e-06
7 *247:28 *457:A2 0.00353684
8 *247:28 *262:26 0.000149481
9 *247:28 *271:26 0
10 *247:28 *294:32 0.00075677
11 *247:28 *319:36 5.89784e-05
12 *247:28 *331:30 0.000215939
13 *247:28 *350:472 0
14 *433:B1 *247:28 6.88205e-06
15 *469:A2 *247:28 0.000316236
16 *474:C1 *247:28 5.68515e-05
17 *12:26 *247:28 0.000182267
18 *19:26 *247:28 6.3657e-05
19 *36:14 *247:28 4.60116e-05
20 *53:22 *247:28 6.03237e-05
21 *68:38 *247:28 0.000702121
22 *69:26 *247:28 0.00159392
23 *178:12 *247:28 4.69495e-06
24 *182:14 *247:28 7.18395e-05
25 *182:99 *247:28 1.5756e-05
26 *185:26 *247:28 0.000134023
27 *217:44 *247:28 0.000909178
28 *225:34 *247:28 0.000165632
*RES
1 *601:Q *247:28 47.7807 
2 *247:28 *474:A1 9.24915 
*END

*D_NET *248 0.0208457
*CONN
*I *465:A2 I *D sky130_fd_sc_hd__mux4_2
*I *600:Q O *D sky130_fd_sc_hd__edfxtp_1
*CAP
1 *465:A2 3.27805e-05
2 *600:Q 0.00416765
3 *248:34 0.00420043
4 *465:A2 *254:22 1.00937e-05
5 *248:34 *465:A3 0.000536955
6 *248:34 *465:S0 0.000246817
7 *248:34 *254:22 4.65438e-05
8 *248:34 *263:34 7.27245e-06
9 *248:34 *273:30 0.00389263
10 *248:34 *277:34 0.00248457
11 *248:34 *285:34 0.000679018
12 *395:B *248:34 0
13 *429:A1 *248:34 0.00161574
14 *11:38 *248:34 3.43675e-05
15 *35:28 *248:34 9.77482e-06
16 *44:30 *248:34 0.000830661
17 *58:28 *248:34 0.00147207
18 *102:26 *248:34 4.69495e-06
19 *123:32 *248:34 3.8519e-05
20 *136:20 *248:34 0.00038036
21 *182:152 *248:34 5.5123e-06
22 *185:26 *248:34 3.79718e-05
23 *216:12 *465:A2 6.64392e-05
24 *216:12 *248:34 4.48466e-05
*RES
1 *600:Q *248:34 49.5938 
2 *248:34 *465:A2 10.5513 
*END

*D_NET *249 0.0249547
*CONN
*I *457:A2 I *D sky130_fd_sc_hd__mux4_2
*I *599:Q O *D sky130_fd_sc_hd__edfxtp_1
*CAP
1 *457:A2 0.00557786
2 *599:Q 0.00133096
3 *249:28 0.00690882
4 *457:A2 *435:B2 0.00118896
5 *457:A2 *457:S0 8.02893e-06
6 *457:A2 *458:A0 1.75436e-05
7 *457:A2 *257:38 0.000107496
8 *457:A2 *272:40 0.00233916
9 *457:A2 *304:30 0.000110297
10 *457:A2 *328:32 0.000436144
11 *457:A2 *350:442 9.61312e-05
12 *457:A2 *366:192 0.000104754
13 *249:28 *562:CLK 2.98322e-05
14 *249:28 *253:20 1.5714e-05
15 *249:28 *286:18 0.000201905
16 *249:28 *297:46 0
17 *249:28 *362:18 7.39134e-05
18 *562:DE *249:28 3.93821e-05
19 *643:DE *457:A2 4.79809e-06
20 *657:DE *457:A2 3.8289e-05
21 *3:93 *457:A2 7.61596e-06
22 *13:23 *457:A2 3.86707e-05
23 *13:96 *457:A2 4.26378e-05
24 *68:38 *457:A2 9.4385e-05
25 *70:30 *457:A2 0.000246944
26 *75:30 *457:A2 0.000120627
27 *117:43 *249:28 5.74949e-05
28 *119:22 *249:28 6.56617e-05
29 *164:49 *249:28 1.53151e-05
30 *166:113 *249:28 5.97065e-05
31 *168:24 *249:28 3.5534e-06
32 *168:131 *249:28 3.07179e-05
33 *169:71 *457:A2 9.71439e-06
34 *170:47 *457:A2 2.68551e-05
35 *170:55 *457:A2 0.000196239
36 *170:55 *249:28 2.07768e-05
37 *220:28 *457:A2 0.000238344
38 *225:34 *457:A2 0.00140212
39 *238:22 *457:A2 0.000110507
40 *247:28 *457:A2 0.00353684
*RES
1 *599:Q *249:28 47.7805 
2 *249:28 *457:A2 36.2349 
*END

*D_NET *250 0.003452
*CONN
*I *450:A2 I *D sky130_fd_sc_hd__mux4_2
*I *598:Q O *D sky130_fd_sc_hd__edfxtp_1
*CAP
1 *450:A2 0.000933756
2 *598:Q 0.000933756
3 *450:A2 *467:A0 0.000574954
4 *450:A2 *468:A2 0
5 *450:A2 *334:24 3.52127e-05
6 *410:A1 *450:A2 3.91685e-05
7 *410:A2 *450:A2 1.13647e-05
8 *467:A3 *450:A2 9.97479e-06
9 *607:D *450:A2 1.24546e-05
10 *19:26 *450:A2 0.000193665
11 *48:30 *450:A2 0.000118918
12 *178:12 *450:A2 0
13 *239:16 *450:A2 0.000581691
14 *247:28 *450:A2 7.08723e-06
*RES
1 *598:Q *450:A2 49.5697 
*END

*D_NET *251 0.016607
*CONN
*I *442:A1 I *D sky130_fd_sc_hd__a221oi_1
*I *597:Q O *D sky130_fd_sc_hd__edfxtp_1
*CAP
1 *442:A1 0.000271524
2 *597:Q 0.00160433
3 *251:60 0.00157372
4 *251:36 0.00263224
5 *251:24 0.00293438
6 *442:A1 *442:B2 5.34812e-05
7 *442:A1 *625:CLK 0.000138205
8 *251:24 *465:A3 0.000323478
9 *251:24 *695:CLK 1.88014e-05
10 *251:24 *279:62 0.000112519
11 *251:24 *295:22 0.00042388
12 *251:24 *299:90 0
13 *251:24 *308:18 0.000128324
14 *251:24 *358:16 0.000552558
15 *251:24 *358:24 1.75049e-05
16 *251:36 *254:22 2.92789e-05
17 *251:36 *273:30 6.28328e-05
18 *251:60 *407:A1 0.000156295
19 *251:60 *318:16 0.000423962
20 *251:60 *322:48 8.21597e-05
21 *251:60 *333:26 1.26334e-05
22 *251:60 *350:255 7.17006e-05
23 *251:60 *366:110 2.77564e-05
24 *457:A1 *251:24 0.000170311
25 *473:A0 *251:60 0.000219809
26 *473:A1 *251:60 0
27 *27:16 *251:60 0.000178783
28 *51:36 *251:60 3.35038e-05
29 *51:38 *251:36 0.000920101
30 *51:38 *251:60 0.000292211
31 *57:26 *251:24 0.00159999
32 *110:24 *251:60 0.00017809
33 *110:40 *251:36 0
34 *126:20 *251:36 2.08076e-05
35 *158:69 *251:24 0.000129091
36 *160:56 *251:24 2.21536e-05
37 *160:81 *251:24 0.000107448
38 *182:189 *251:60 2.26334e-05
39 *204:12 *251:60 0.000113066
40 *216:12 *251:36 4.00136e-05
41 *216:36 *251:36 0.000241399
42 *216:36 *251:60 0
43 *216:46 *251:60 1.40384e-05
44 *218:56 *251:60 2.93475e-05
45 *231:38 *251:36 1.42903e-05
46 *232:20 *251:36 4.45999e-05
47 *233:34 *251:24 0.000563716
*RES
1 *597:Q *251:24 43.9875 
2 *251:24 *251:36 41.6051 
3 *251:36 *251:60 48.429 
4 *251:60 *442:A1 16.4831 
*END

*D_NET *252 0.00783421
*CONN
*I *421:A1 I *D sky130_fd_sc_hd__a221oi_1
*I *596:Q O *D sky130_fd_sc_hd__edfxtp_1
*CAP
1 *421:A1 0.000706393
2 *596:Q 0.0013881
3 *252:10 0.00209449
4 *252:10 *314:26 2.98163e-05
5 *252:10 *358:10 3.47046e-05
6 *465:A0 *421:A1 0.000244332
7 *484:A3 *252:10 0.00202968
8 *39:10 *421:A1 0.000283375
9 *55:20 *421:A1 0.000150492
10 *92:16 *421:A1 0
11 *240:16 *421:A1 0.000872821
*RES
1 *596:Q *252:10 46.7572 
2 *252:10 *421:A1 44.9963 
*END

*D_NET *253 0.0124571
*CONN
*I *402:A2 I *D sky130_fd_sc_hd__mux4_2
*I *595:Q O *D sky130_fd_sc_hd__edfxtp_1
*CAP
1 *402:A2 0
2 *595:Q 0.00130973
3 *253:58 0.00228784
4 *253:20 0.00359756
5 *253:20 *562:CLK 6.52454e-05
6 *253:20 *622:CLK 2.7613e-05
7 *253:20 *1204:A 1.5714e-05
8 *253:20 *286:18 3.24705e-06
9 *253:20 *346:14 0.00010905
10 *253:20 *363:63 2.41274e-06
11 *253:20 *363:74 0.000232361
12 *253:58 *279:38 0.00011383
13 *253:58 *297:46 1.99186e-05
14 *253:58 *305:32 0.000547242
15 *253:58 *351:31 5.54585e-05
16 *433:B1 *253:58 0.0010798
17 *570:DE *253:58 6.03529e-05
18 *645:DE *253:58 5.11321e-05
19 *676:DE *253:58 2.06526e-05
20 *677:DE *253:58 4.69495e-06
21 *682:DE *253:20 3.34544e-06
22 *6:69 *253:20 9.65665e-05
23 *82:66 *253:58 1.85611e-05
24 *118:18 *253:20 9.34955e-06
25 *118:20 *253:20 2.27296e-05
26 *150:14 *253:20 0.000304687
27 *155:157 *253:20 1.68157e-05
28 *155:198 *253:20 0.000101184
29 *156:46 *253:58 3.03564e-05
30 *178:12 *253:58 1.91391e-05
31 *180:111 *253:20 0.000158451
32 *218:32 *253:58 0.00205634
33 *249:28 *253:20 1.5714e-05
*RES
1 *595:Q *253:20 46.0153 
2 *253:20 *253:58 45.0428 
3 *253:58 *402:A2 9.24915 
*END

*D_NET *254 0.00764405
*CONN
*I *540:A1 I *D sky130_fd_sc_hd__a221oi_1
*I *671:Q O *D sky130_fd_sc_hd__edfxtp_1
*CAP
1 *540:A1 0
2 *671:Q 0.000371643
3 *254:22 0.00246278
4 *254:12 0.00283443
5 *254:12 *481:A3 0.000666084
6 *254:12 *578:CLK 8.48378e-05
7 *254:12 *686:CLK 0.000178027
8 *254:12 *690:CLK 8.6297e-06
9 *254:12 *260:26 8.90497e-05
10 *254:12 *358:26 0.000164439
11 *254:12 *358:37 0.000192549
12 *254:22 *465:A3 1.93781e-05
13 *254:22 *465:S0 9.30378e-05
14 *254:22 *655:CLK 3.82228e-05
15 *254:22 *268:52 2.41274e-06
16 *254:22 *299:26 2.38934e-06
17 *465:A2 *254:22 1.00937e-05
18 *572:DE *254:22 0.000115831
19 *697:D *254:22 4.92214e-05
20 *80:160 *254:22 1.64291e-05
21 *110:40 *254:22 2.27467e-05
22 *126:20 *254:22 3.04443e-05
23 *156:101 *254:12 8.01689e-05
24 *216:12 *254:22 3.53784e-05
25 *248:34 *254:22 4.65438e-05
26 *251:36 *254:22 2.92789e-05
*RES
1 *671:Q *254:12 32.2936 
2 *254:12 *254:22 45.4223 
3 *254:22 *540:A1 9.24915 
*END

*D_NET *255 0.0184561
*CONN
*I *474:B2 I *D sky130_fd_sc_hd__a221oi_1
*I *610:Q O *D sky130_fd_sc_hd__edfxtp_1
*CAP
1 *474:B2 0.000985871
2 *610:Q 0.0033682
3 *255:32 0.00435407
4 *474:B2 *266:42 0.000298676
5 *474:B2 *271:26 0.00127519
6 *474:B2 *277:34 0.000317915
7 *255:32 *421:B2 0.00134261
8 *255:32 *437:A0 1.42478e-05
9 *255:32 *451:A1 0.000359655
10 *255:32 *259:28 0.000352602
11 *255:32 *266:28 0
12 *255:32 *277:34 0
13 *255:32 *334:54 0.000245151
14 *401:B2 *255:32 5.83513e-05
15 *422:A2 *474:B2 1.1573e-05
16 *469:A0 *474:B2 0.00301752
17 *469:A0 *255:32 0
18 *474:C1 *474:B2 2.02035e-05
19 *475:B1 *474:B2 0
20 *549:A2 *474:B2 0
21 *3:93 *255:32 0
22 *36:14 *255:32 1.22396e-05
23 *58:28 *255:32 0.000154824
24 *67:20 *474:B2 3.809e-06
25 *91:16 *255:32 0.000461465
26 *121:8 *474:B2 0.000144814
27 *125:28 *255:32 1.43499e-05
28 *131:38 *255:32 6.8017e-05
29 *135:8 *474:B2 0.000157517
30 *142:12 *474:B2 0
31 *215:40 *255:32 0.00141721
*RES
1 *610:Q *255:32 43.1871 
2 *255:32 *474:B2 32.4617 
*END

*D_NET *256 0.0159105
*CONN
*I *465:A3 I *D sky130_fd_sc_hd__mux4_2
*I *668:Q O *D sky130_fd_sc_hd__edfxtp_1
*CAP
1 *465:A3 0.00389467
2 *668:Q 0.00389467
3 *465:A3 *414:A1 0.000436703
4 *465:A3 *585:CLK 0.000226438
5 *465:A3 *257:38 1.60814e-05
6 *465:A3 *279:38 2.00887e-05
7 *465:A3 *295:22 0.000410527
8 *465:A3 *299:90 4.31868e-05
9 *465:A3 *305:32 0.000177048
10 *465:A3 *336:58 5.08071e-05
11 *465:A3 *350:373 8.12259e-06
12 *393:A2 *465:A3 0.00138205
13 *485:B1_N *465:A3 0.000175423
14 *528:A1 *465:A3 1.43121e-05
15 *655:DE *465:A3 0.000778906
16 *56:28 *465:A3 0.000417986
17 *57:26 *465:A3 0.000652483
18 *68:38 *465:A3 0.00150546
19 *110:40 *465:A3 4.51176e-05
20 *118:28 *465:A3 9.81087e-06
21 *119:24 *465:A3 5.39635e-06
22 *120:71 *465:A3 5.06457e-05
23 *136:20 *465:A3 6.04627e-05
24 *157:34 *465:A3 0
25 *158:69 *465:A3 0.00033198
26 *162:12 *465:A3 2.02792e-05
27 *167:86 *465:A3 0
28 *182:152 *465:A3 2.89704e-05
29 *217:44 *465:A3 0.000373017
30 *248:34 *465:A3 0.000536955
31 *251:24 *465:A3 0.000323478
32 *254:22 *465:A3 1.93781e-05
*RES
1 *668:Q *465:A3 46.5098 
*END

*D_NET *257 0.0134222
*CONN
*I *457:A3 I *D sky130_fd_sc_hd__mux4_2
*I *606:Q O *D sky130_fd_sc_hd__edfxtp_1
*CAP
1 *457:A3 0
2 *606:Q 0.00284555
3 *257:38 0.00284555
4 *257:38 *457:S0 0.000159977
5 *257:38 *507:B1 5.25599e-05
6 *257:38 *260:26 0.00145594
7 *257:38 *282:40 3.09125e-05
8 *257:38 *304:30 4.99894e-05
9 *257:38 *308:18 8.20742e-05
10 *257:38 *350:442 9.94352e-05
11 *405:B *257:38 8.56006e-05
12 *457:A1 *257:38 0.000114139
13 *457:A2 *257:38 0.000107496
14 *465:A3 *257:38 1.60814e-05
15 *519:SLEEP *257:38 6.63281e-05
16 *529:A *257:38 0.000230882
17 *3:20 *257:38 7.43516e-05
18 *3:93 *257:38 0.000168506
19 *4:26 *257:38 0.00244244
20 *10:47 *257:38 5.01921e-05
21 *75:30 *257:38 0.000263228
22 *117:12 *257:38 0.00023019
23 *140:36 *257:38 0.000606467
24 *161:16 *257:38 0.000913563
25 *162:12 *257:38 1.79239e-05
26 *180:60 *257:38 0.000311725
27 *180:87 *257:38 0.000101133
*RES
1 *606:Q *257:38 49.4315 
2 *257:38 *457:A3 9.24915 
*END

*D_NET *258 0.00942351
*CONN
*I *450:A3 I *D sky130_fd_sc_hd__mux4_2
*I *605:Q O *D sky130_fd_sc_hd__edfxtp_1
*CAP
1 *450:A3 0.000603967
2 *605:Q 0.00127872
3 *258:24 0.00188269
4 *450:A3 *264:12 0.000404516
5 *450:A3 *264:30 0.000162371
6 *450:A3 *265:68 1.09898e-05
7 *258:24 *434:A1 0.0015707
8 *258:24 *263:34 3.17436e-05
9 *258:24 *347:134 4.02528e-05
10 *401:A1 *258:24 0.00177503
11 *401:B2 *258:24 8.41713e-05
12 *410:A1 *450:A3 1.44611e-05
13 *31:58 *258:24 3.1403e-05
14 *48:10 *450:A3 0.000391354
15 *48:10 *258:24 1.92849e-05
16 *48:30 *450:A3 0
17 *70:30 *258:24 4.23622e-05
18 *88:32 *258:24 5.76996e-05
19 *157:131 *258:24 0.000231479
20 *177:10 *450:A3 1.33278e-05
21 *177:10 *258:24 5.24713e-05
22 *208:32 *450:A3 2.82679e-05
23 *213:20 *258:24 0.000212697
24 *234:56 *450:A3 0.000402622
25 *242:18 *450:A3 8.09221e-05
*RES
1 *605:Q *258:24 41.3402 
2 *258:24 *450:A3 34.1331 
*END

*D_NET *259 0.00753772
*CONN
*I *442:B2 I *D sky130_fd_sc_hd__a221oi_1
*I *604:Q O *D sky130_fd_sc_hd__edfxtp_1
*CAP
1 *442:B2 0.000792717
2 *604:Q 0.00149719
3 *259:28 0.00228991
4 *442:B2 *625:CLK 0.000203604
5 *442:B2 *351:403 3.41459e-05
6 *259:28 *431:A0 0.000109796
7 *259:28 *434:A1 0.000186714
8 *259:28 *437:A1 5.60804e-05
9 *259:28 *451:A1 3.30795e-05
10 *259:28 *536:A0 1.61372e-05
11 *259:28 *296:28 2.57847e-05
12 *259:28 *329:32 0.00015378
13 *259:28 *334:54 0.000585385
14 *259:28 *347:134 0.000111938
15 *442:A1 *442:B2 5.34812e-05
16 *11:158 *259:28 5.27303e-05
17 *58:28 *259:28 0.000167795
18 *165:10 *259:28 0.000169344
19 *182:189 *259:28 1.43499e-05
20 *200:10 *259:28 0.000182927
21 *215:40 *259:28 0.000448229
22 *255:32 *259:28 0.000352602
*RES
1 *604:Q *259:28 47.5334 
2 *259:28 *442:B2 21.354 
*END

*D_NET *260 0.0168796
*CONN
*I *421:B2 I *D sky130_fd_sc_hd__a221oi_1
*I *603:Q O *D sky130_fd_sc_hd__edfxtp_1
*CAP
1 *421:B2 0.00259882
2 *603:Q 0.00147012
3 *260:26 0.00406894
4 *421:B2 *451:A1 6.11961e-06
5 *421:B2 *466:S0 1.00846e-05
6 *421:B2 *266:28 0.00013957
7 *421:B2 *350:351 6.42076e-05
8 *421:B2 *350:408 9.77584e-05
9 *260:26 *481:A3 1.94916e-05
10 *260:26 *578:CLK 4.95077e-05
11 *260:26 *690:CLK 6.01588e-05
12 *260:26 *699:CLK 1.43041e-05
13 *260:26 *299:60 6.99979e-05
14 *260:26 *314:26 0
15 *260:26 *357:35 1.9101e-05
16 dout[3] *421:B2 3.21156e-06
17 *421:C1 *421:B2 4.56831e-05
18 *578:D *260:26 9.24534e-06
19 *578:DE *260:26 7.10162e-06
20 *3:20 *260:26 5.68714e-05
21 *3:93 *421:B2 0.0024093
22 *3:93 *260:26 0.000107154
23 *55:20 *421:B2 3.79786e-05
24 *56:28 *260:26 0.000239832
25 *58:28 *421:B2 0.000924147
26 *68:38 *421:B2 0.00011195
27 *68:38 *260:26 8.31531e-05
28 *71:24 *260:26 1.5714e-05
29 *87:30 *421:B2 3.61375e-05
30 *92:12 *421:B2 0.000151101
31 *145:32 *421:B2 0
32 *182:167 *421:B2 5.04829e-06
33 *183:40 *260:26 0.000712018
34 *215:40 *421:B2 0.000292131
35 *225:34 *421:B2 5.55855e-05
36 *225:34 *260:26 4.28856e-07
37 *254:12 *260:26 8.90497e-05
38 *255:32 *421:B2 0.00134261
39 *257:38 *260:26 0.00145594
*RES
1 *603:Q *260:26 48.6628 
2 *260:26 *421:B2 34.9849 
*END

*D_NET *261 0.0207811
*CONN
*I *402:A3 I *D sky130_fd_sc_hd__mux4_2
*I *602:Q O *D sky130_fd_sc_hd__edfxtp_1
*CAP
1 *402:A3 0.000221462
2 *602:Q 0.00295059
3 *261:42 0.00123289
4 *261:34 0.00396202
5 *402:A3 *402:S0 0.000248815
6 *402:A3 *274:28 3.04084e-05
7 *402:A3 *350:191 0.000435199
8 *261:34 *438:A1 3.11116e-05
9 *261:34 *1195:A 0.000262573
10 *261:34 *313:52 2.18679e-05
11 *261:34 *321:22 0.000565417
12 *261:34 *327:36 0.00167959
13 *261:34 *343:138 6.00782e-06
14 *261:34 *356:16 2.26168e-05
15 *261:42 *432:A1 0.000345917
16 *261:42 *272:40 0.000188071
17 *261:42 *275:36 9.04749e-05
18 *261:42 *321:22 0.000168717
19 *261:42 *321:46 9.04282e-05
20 *378:D_N *261:34 0.000365081
21 *398:B *261:42 0.00104549
22 *485:B1_N *261:34 0.00107859
23 *519:SLEEP *261:34 3.58821e-05
24 *684:DE *261:34 8.06767e-05
25 *3:20 *261:34 7.86825e-06
26 *21:20 *261:34 6.63705e-05
27 *21:20 *261:42 0.000513437
28 *70:30 *261:34 0.000567289
29 *93:30 *261:34 0.00165971
30 *117:12 *261:34 6.68644e-06
31 *160:37 *261:34 0.000370575
32 *161:162 *261:34 0.000220124
33 *166:57 *261:34 0
34 *182:47 *261:34 6.03237e-05
35 *212:28 *261:42 7.9849e-05
36 *215:40 *261:34 1.55588e-05
37 *217:80 *261:42 0.000756809
38 *220:28 *261:34 0.000567289
39 *234:32 *261:34 7.69915e-06
40 *234:32 *261:42 0.0002158
41 *234:56 *261:42 8.75504e-05
42 *236:32 *261:34 0.000418293
*RES
1 *602:Q *261:34 47.9856 
2 *261:34 *261:42 43.1551 
3 *261:42 *402:A3 18.2916 
*END

*D_NET *262 0.0127792
*CONN
*I *540:B2 I *D sky130_fd_sc_hd__a221oi_1
*I *670:Q O *D sky130_fd_sc_hd__edfxtp_1
*CAP
1 *540:B2 0.00069365
2 *670:Q 0.00216649
3 *262:26 0.00286014
4 *540:B2 *439:A1 2.41274e-06
5 *540:B2 *350:389 2.65829e-05
6 *262:26 *452:A3 6.37652e-06
7 *262:26 *481:A2 3.75221e-05
8 *262:26 *266:28 0
9 *262:26 *274:28 7.92497e-06
10 *262:26 *295:22 0.000233071
11 *262:26 *350:460 6.97621e-06
12 dout[1] *262:26 5.81464e-05
13 *469:A2 *262:26 0.00120942
14 *540:C1 *540:B2 4.58003e-05
15 *549:A2 *262:26 0.000390421
16 *12:26 *262:26 1.78584e-05
17 *36:14 *262:26 0.00218777
18 *51:38 *540:B2 0.000105316
19 *71:14 *262:26 0.00107698
20 *91:16 *262:26 0.000156919
21 *99:12 *262:26 0
22 *110:40 *262:26 0.000463909
23 *131:38 *540:B2 0.000241923
24 *144:34 *262:26 8.1632e-05
25 *145:32 *262:26 0
26 *183:40 *262:26 7.09666e-06
27 *210:20 *262:26 5.73423e-05
28 *231:28 *262:26 0.000152349
29 *231:38 *540:B2 0.000335699
30 *247:28 *262:26 0.000149481
*RES
1 *670:Q *262:26 46.1029 
2 *262:26 *540:B2 36.991 
*END

*D_NET *263 0.00975195
*CONN
*I *479:A1 I *D sky130_fd_sc_hd__mux4_2
*I *640:Q O *D sky130_fd_sc_hd__edfxtp_1
*CAP
1 *479:A1 0.000182665
2 *640:Q 0.00116552
3 *263:34 0.00189322
4 *263:22 0.00287608
5 *479:A1 *350:389 0.000110306
6 *263:22 *435:B2 1.66771e-05
7 *263:22 *625:CLK 1.21729e-05
8 *263:22 *669:CLK 0.000112593
9 *263:22 *264:12 6.40876e-05
10 *263:22 *275:36 6.63328e-05
11 *263:22 *291:26 0
12 *263:22 *333:26 0.000207732
13 *263:22 *334:54 0.000144628
14 *263:22 *351:403 8.68108e-05
15 *263:34 *431:A0 2.17105e-06
16 *263:34 *536:A0 3.03797e-05
17 *263:34 *546:A0 8.68791e-05
18 *263:34 *270:24 0.000124889
19 *263:34 *288:40 1.91359e-05
20 *263:34 *296:28 9.63689e-05
21 *263:34 *302:24 0
22 *263:34 *307:32 1.5714e-05
23 *263:34 *333:26 0
24 *480:B *479:A1 6.08467e-05
25 *605:D *263:34 8.44149e-05
26 *31:58 *263:34 0
27 *48:10 *263:34 0
28 *60:62 *263:22 0
29 *81:202 *263:34 7.99717e-05
30 *88:32 *263:34 0.0001823
31 *133:12 *479:A1 0.000160729
32 *136:20 *263:34 0
33 *142:12 *479:A1 0.000169657
34 *142:12 *263:34 0.00102737
35 *157:131 *263:34 3.91825e-05
36 *172:18 *263:22 1.57085e-05
37 *177:10 *263:22 0.000141076
38 *182:197 *263:22 2.06577e-05
39 *213:20 *263:22 0.000316369
40 *213:20 *263:34 8.88027e-05
41 *220:28 *263:34 5.11322e-06
42 *231:38 *263:34 0
43 *234:56 *263:22 6.37652e-06
44 *248:34 *263:34 7.27245e-06
45 *258:24 *263:34 3.17436e-05
*RES
1 *640:Q *263:22 47.3988 
2 *263:22 *263:34 49.0159 
3 *263:34 *479:A1 23.7435 
*END

*D_NET *264 0.00695883
*CONN
*I *468:A1 I *D sky130_fd_sc_hd__mux4_2
*I *639:Q O *D sky130_fd_sc_hd__edfxtp_1
*CAP
1 *468:A1 0
2 *639:Q 0.000330541
3 *264:30 0.0013436
4 *264:12 0.00167414
5 *264:12 *291:26 3.16019e-05
6 *264:30 *450:S1 0.00031269
7 *264:30 *468:A2 3.48903e-05
8 *264:30 *326:14 0.000673465
9 *264:30 *350:181 6.08467e-05
10 *402:A1 *264:30 0
11 *410:A1 *264:30 5.70817e-06
12 *410:B1 *264:30 1.7764e-05
13 *448:A2 *264:30 0.00015901
14 *448:B1 *264:30 0.000368943
15 *450:A3 *264:12 0.000404516
16 *450:A3 *264:30 0.000162371
17 *467:A3 *264:30 0.000237225
18 *48:30 *264:12 5.04829e-06
19 *172:18 *264:12 0.000180937
20 *172:18 *264:30 0
21 *177:10 *264:12 0.000425271
22 *177:10 *264:30 8.97871e-05
23 *178:12 *264:30 0.000208077
24 *208:32 *264:30 0.000168313
25 *263:22 *264:12 6.40876e-05
*RES
1 *639:Q *264:12 26.3164 
2 *264:12 *264:30 45.9455 
3 *264:30 *468:A1 9.24915 
*END

*D_NET *265 0.0156446
*CONN
*I *460:A1 I *D sky130_fd_sc_hd__mux4_2
*I *638:Q O *D sky130_fd_sc_hd__edfxtp_1
*CAP
1 *460:A1 0
2 *638:Q 0.00105155
3 *265:68 0.00282405
4 *265:30 0.0038756
5 *265:30 *468:A2 3.30409e-05
6 *265:30 *331:30 0.000743869
7 *265:30 *334:24 2.54101e-05
8 *265:68 *380:A 0.00011425
9 *265:68 *397:A0 0.00174306
10 *265:68 *435:B2 0.000703769
11 *265:68 *460:S1 1.4403e-05
12 *265:68 *273:30 0.00016008
13 *265:68 *274:28 0.00163729
14 *265:68 *275:36 6.95086e-06
15 *265:68 *288:40 0
16 *265:68 *294:32 0.000330969
17 *265:68 *299:90 3.02641e-05
18 *265:68 *304:30 4.11877e-05
19 *265:68 *334:24 0.00013796
20 *398:B *265:30 1.91246e-05
21 *450:A3 *265:68 1.09898e-05
22 *455:A1 *265:68 0
23 *607:D *265:68 0.000151106
24 *14:14 *265:68 0.000110941
25 *21:18 *265:30 0.000135127
26 *48:30 *265:68 1.33798e-05
27 *69:26 *265:68 5.01835e-05
28 *77:14 *265:30 0.000223447
29 *87:30 *265:68 0.000393847
30 *110:40 *265:68 4.82449e-05
31 *158:39 *265:30 3.65673e-05
32 *208:32 *265:68 0.000251558
33 *212:28 *265:30 0.000156862
34 *216:12 *265:68 0
35 *232:20 *265:68 6.1096e-05
36 *234:56 *265:68 0.000384063
37 *238:22 *265:30 0.000124395
*RES
1 *638:Q *265:30 47.6271 
2 *265:30 *265:68 48.7418 
3 *265:68 *460:A1 9.24915 
*END

*D_NET *266 0.0163662
*CONN
*I *452:A1 I *D sky130_fd_sc_hd__mux4_2
*I *637:Q O *D sky130_fd_sc_hd__edfxtp_1
*CAP
1 *452:A1 0.00017095
2 *637:Q 0.00248574
3 *266:42 0.00112094
4 *266:28 0.00343573
5 *452:A1 *452:A2 7.49811e-05
6 *266:28 *273:30 0.000623584
7 *266:28 *277:34 8.42879e-05
8 *266:28 *304:30 7.40684e-06
9 *266:28 *366:51 0.000281458
10 *266:42 *481:A1 0
11 *266:42 *277:34 0.000157517
12 *421:B2 *266:28 0.00013957
13 *429:A1 *266:28 0.00113328
14 *452:A0 *452:A1 0.000207591
15 *470:A1 *266:42 7.83506e-06
16 *470:B1 *266:42 8.52986e-06
17 *474:B2 *266:42 0.000298676
18 *475:B1 *266:42 0
19 *487:B1 *266:42 0.00162325
20 *593:D *266:28 0.00055633
21 *609:D *266:28 8.43713e-06
22 *3:93 *266:28 0.000182363
23 *4:26 *266:42 2.53892e-05
24 *31:58 *266:28 3.20366e-05
25 *51:38 *266:28 8.41656e-05
26 *58:28 *266:28 0.000997915
27 *67:20 *266:42 0.000349561
28 *70:30 *266:28 0.000133754
29 *71:14 *266:42 1.9562e-05
30 *142:12 *266:42 0
31 *145:22 *266:42 0.00161954
32 *157:131 *266:28 7.92757e-06
33 *182:14 *266:42 0
34 *220:64 *266:28 0.000104754
35 *231:28 *266:28 5.95452e-06
36 *231:38 *266:28 0.000377212
37 *255:32 *266:28 0
38 *262:26 *266:28 0
*RES
1 *637:Q *266:28 39.6645 
2 *266:28 *266:42 47.4783 
3 *266:42 *452:A1 18.3548 
*END

*D_NET *267 0.0155456
*CONN
*I *434:A1 I *D sky130_fd_sc_hd__mux2i_1
*I *636:Q O *D sky130_fd_sc_hd__edfxtp_1
*CAP
1 *434:A1 0.00150444
2 *636:Q 0.00223477
3 *267:28 0.00373921
4 *434:A1 *431:A0 0.000135608
5 *434:A1 *318:16 6.1578e-06
6 *434:A1 *329:28 9.49949e-05
7 *434:A1 *347:134 0.00199976
8 *267:28 *590:CLK 2.29454e-05
9 *267:28 *268:30 3.20773e-05
10 *267:28 *270:24 0.000382305
11 *267:28 *319:36 0.000127047
12 *267:28 *347:51 6.97036e-06
13 *401:A1 *434:A1 9.27681e-05
14 *434:A0 *434:A1 0.000166037
15 *441:A1 *267:28 7.50443e-05
16 *636:DE *267:28 2.31719e-05
17 *12:30 *267:28 9.1756e-05
18 *60:42 *267:28 0.000255967
19 *80:215 *267:28 9.55496e-05
20 *82:268 *267:28 6.39573e-05
21 *82:291 *434:A1 0.000435682
22 *82:291 *267:28 0.00120355
23 *160:120 *267:28 0.000594026
24 *165:10 *434:A1 0.000183371
25 *220:64 *434:A1 6.08467e-05
26 *235:24 *267:28 0.000160197
27 *258:24 *434:A1 0.0015707
28 *259:28 *434:A1 0.000186714
*RES
1 *636:Q *267:28 48.7631 
2 *267:28 *434:A1 44.3949 
*END

*D_NET *268 0.0104678
*CONN
*I *414:A1 I *D sky130_fd_sc_hd__mux2i_1
*I *635:Q O *D sky130_fd_sc_hd__edfxtp_1
*CAP
1 *414:A1 0.000565368
2 *635:Q 0.00101982
3 *268:52 0.0015978
4 *268:30 0.00205226
5 *414:A1 *414:S 1.56419e-05
6 *414:A1 *420:S 2.00098e-05
7 *414:A1 *664:CLK 4.30017e-06
8 *414:A1 *279:38 1.5714e-05
9 *414:A1 *357:80 7.08723e-06
10 *268:30 *631:CLK 1.42156e-05
11 *268:30 *632:CLK 6.76621e-05
12 *268:30 *293:42 2.8182e-06
13 *268:30 *319:36 6.49758e-05
14 *268:30 *327:36 0.00046547
15 *268:30 *340:50 2.48809e-05
16 *268:30 *359:69 1.03403e-05
17 *268:30 *365:139 0.000166874
18 *268:52 *481:A3 0.000128699
19 *268:52 *299:26 0.000310562
20 *268:52 *311:28 1.36139e-05
21 *268:52 *330:48 0.000226438
22 *268:52 *336:18 3.86192e-05
23 *268:52 *359:54 8.77441e-05
24 *268:52 *359:65 0.000101715
25 *441:A1 *268:30 4.69495e-06
26 *465:A3 *414:A1 0.000436703
27 *11:60 *414:A1 0
28 *57:26 *414:A1 0.000450443
29 *71:24 *414:A1 2.24412e-05
30 *81:101 *268:30 0.000184624
31 *81:124 *268:52 0.000607863
32 *82:268 *268:30 0.000273587
33 *82:291 *268:30 4.43935e-05
34 *155:68 *268:52 1.85244e-05
35 *156:87 *268:52 0.000285458
36 *156:101 *268:52 0.000489511
37 *158:39 *268:30 0
38 *158:53 *268:30 6.55131e-05
39 *158:53 *268:52 0.000139882
40 *160:142 *268:30 2.16608e-05
41 *162:79 *268:52 7.10735e-06
42 *167:117 *268:52 0.000226438
43 *220:28 *268:30 0.000131795
44 *254:22 *268:52 2.41274e-06
45 *267:28 *268:30 3.20773e-05
*RES
1 *635:Q *268:30 45.624 
2 *268:30 *268:52 49.34 
3 *268:52 *414:A1 36.7424 
*END

*D_NET *269 0.00490151
*CONN
*I *407:A1 I *D sky130_fd_sc_hd__mux4_2
*I *634:Q O *D sky130_fd_sc_hd__edfxtp_1
*CAP
1 *407:A1 0.000287702
2 *634:Q 0.00118578
3 *269:20 0.00147349
4 *407:A1 *350:266 6.3657e-05
5 *269:20 *536:A0 2.1203e-06
6 *269:20 *605:CLK 5.1493e-06
7 *269:20 *366:26 2.15251e-05
8 *434:A0 *269:20 3.51083e-07
9 *451:A3 *269:20 0.000117176
10 *473:A1 *407:A1 6.98084e-05
11 *604:DE *269:20 0.000516629
12 *51:36 *269:20 2.59205e-05
13 *110:24 *269:20 3.55731e-06
14 *110:40 *269:20 0.000532018
15 *157:150 *269:20 0.000142396
16 *201:18 *269:20 1.66626e-05
17 *211:24 *407:A1 5.52466e-05
18 *211:24 *269:20 0.000107022
19 *220:64 *269:20 4.13949e-05
20 *226:36 *269:20 7.76066e-05
21 *251:60 *407:A1 0.000156295
*RES
1 *634:Q *269:20 43.369 
2 *269:20 *407:A1 22.1181 
*END

*D_NET *270 0.0190311
*CONN
*I *543:A1 I *D sky130_fd_sc_hd__mux2i_1
*I *624:Q O *D sky130_fd_sc_hd__edfxtp_1
*CAP
1 *543:A1 0.000908211
2 *624:Q 0.00332888
3 *270:24 0.00423709
4 *543:A1 *569:CLK 0.000160617
5 *270:24 *564:CLK 5.97905e-06
6 *270:24 *293:56 0.000132368
7 *270:24 *297:24 4.9898e-05
8 *270:24 *317:22 0.000555175
9 *270:24 *347:51 2.73832e-05
10 *270:24 *366:53 0.00011445
11 *401:A1 *270:24 0.000166786
12 *401:B2 *270:24 0.000740562
13 *428:A1 *543:A1 3.39367e-05
14 *545:A2 *543:A1 3.24105e-05
15 *60:42 *270:24 0.000553218
16 *75:30 *270:24 0.00131486
17 *82:291 *270:24 3.09143e-05
18 *96:16 *543:A1 3.04065e-05
19 *139:16 *543:A1 7.84444e-05
20 *151:14 *543:A1 6.54566e-05
21 *155:146 *543:A1 0.00136166
22 *160:120 *270:24 0.000602918
23 *164:30 *543:A1 0.000306745
24 *167:167 *270:24 5.37912e-05
25 *213:20 *270:24 0.000128292
26 *214:18 *543:A1 0.00157166
27 *219:38 *543:A1 2.2222e-05
28 *219:38 *270:24 0.0019096
29 *263:34 *270:24 0.000124889
30 *267:28 *270:24 0.000382305
*RES
1 *624:Q *270:24 46.0061 
2 *270:24 *543:A1 32.2728 
*END

*D_NET *271 0.0113333
*CONN
*I *479:A2 I *D sky130_fd_sc_hd__mux4_2
*I *647:Q O *D sky130_fd_sc_hd__edfxtp_1
*CAP
1 *479:A2 4.63983e-05
2 *647:Q 0.00296585
3 *271:26 0.00301225
4 *271:26 *277:34 0.000524276
5 *271:26 *358:16 0.000663102
6 *393:A2 *271:26 6.47236e-05
7 *457:A1 *271:26 5.33358e-06
8 *474:B2 *271:26 0.00127519
9 *474:C1 *271:26 5.56461e-05
10 *480:B *479:A2 0.000256037
11 *480:B *271:26 3.04407e-05
12 *548:A2 *271:26 0.000724749
13 *12:26 *271:26 0.000103693
14 *22:10 *271:26 0
15 *23:26 *271:26 3.29488e-05
16 *121:8 *271:26 1.83808e-05
17 *144:34 *271:26 0.000862085
18 *182:133 *479:A2 4.63413e-05
19 *182:152 *479:A2 0.000209388
20 *233:34 *271:26 0.00043648
21 *247:28 *271:26 0
*RES
1 *647:Q *271:26 46.2412 
2 *271:26 *479:A2 16.691 
*END

*D_NET *272 0.0161396
*CONN
*I *468:A2 I *D sky130_fd_sc_hd__mux4_2
*I *646:Q O *D sky130_fd_sc_hd__edfxtp_1
*CAP
1 *468:A2 0.00131169
2 *646:Q 0.0011869
3 *272:40 0.00293838
4 *272:18 0.00281358
5 *468:A2 *369:A 0
6 *468:A2 *467:A0 0.000122425
7 *468:A2 *467:A1 0.000175588
8 *468:A2 *468:A3 2.29454e-05
9 *468:A2 *640:CLK 1.44914e-05
10 *468:A2 *334:24 0
11 *468:A2 *350:172 0.000161234
12 *468:A2 *350:181 0.000233246
13 *272:18 *1200:A 7.98171e-06
14 *272:18 *292:24 0.000132673
15 *272:18 *323:32 0.000199662
16 *272:18 *362:60 0.000134069
17 *272:18 *362:118 0.000156657
18 *272:40 *417:A0 8.62625e-06
19 *272:40 *458:A0 0.000276572
20 *272:40 *275:36 0.000592807
21 *272:40 *292:24 1.23455e-05
22 *272:40 *324:22 4.65615e-06
23 *398:B *468:A2 5.42506e-06
24 *450:A2 *468:A2 0
25 *457:A2 *272:40 0.00233916
26 *461:A3 *272:40 0.000157614
27 *612:D *272:18 3.18826e-06
28 *640:DE *468:A2 4.90621e-05
29 *640:DE *272:40 2.16355e-05
30 *646:DE *272:18 6.37652e-06
31 *6:69 *272:18 0.00013761
32 *11:38 *272:40 5.60804e-05
33 *13:96 *272:40 0.000166713
34 *21:20 *468:A2 4.68333e-05
35 *21:20 *272:40 0.000184459
36 *77:14 *468:A2 0.00116187
37 *94:26 *468:A2 2.33103e-06
38 *167:167 *272:18 4.58728e-05
39 *178:12 *468:A2 0
40 *238:22 *272:40 0.000992826
41 *261:42 *272:40 0.000188071
42 *264:30 *468:A2 3.48903e-05
43 *265:30 *468:A2 3.30409e-05
*RES
1 *646:Q *272:18 46.0211 
2 *272:18 *272:40 38.9572 
3 *272:40 *468:A2 46.7657 
*END

*D_NET *273 0.0176891
*CONN
*I *460:A2 I *D sky130_fd_sc_hd__mux4_2
*I *645:Q O *D sky130_fd_sc_hd__edfxtp_1
*CAP
1 *460:A2 0
2 *645:Q 0.00362247
3 *273:30 0.00362247
4 *273:30 *460:A3 6.64392e-05
5 *273:30 *476:A0 1.66626e-05
6 *273:30 *285:34 0.00105685
7 dout[5] *273:30 0.00157102
8 *425:A2 *273:30 8.51541e-05
9 *429:A1 *273:30 0.000961354
10 *537:B2 *273:30 2.01503e-05
11 *15:6 *273:30 0.000329803
12 *40:26 *273:30 0.000116253
13 *44:30 *273:30 0.000178501
14 *58:28 *273:30 0.000843685
15 *87:30 *273:30 0.000164628
16 *138:28 *273:30 0.000159637
17 *209:52 *273:30 7.26606e-05
18 *216:12 *273:30 6.22269e-05
19 *248:34 *273:30 0.00389263
20 *251:36 *273:30 6.28328e-05
21 *265:68 *273:30 0.00016008
22 *266:28 *273:30 0.000623584
*RES
1 *645:Q *273:30 46.9873 
2 *273:30 *460:A2 9.24915 
*END

*D_NET *274 0.0215667
*CONN
*I *452:A2 I *D sky130_fd_sc_hd__mux4_2
*I *644:Q O *D sky130_fd_sc_hd__edfxtp_1
*CAP
1 *452:A2 0.000677985
2 *644:Q 0.00359244
3 *274:28 0.00427043
4 *452:A2 *452:A3 0.000107496
5 *274:28 *369:A 0.00228709
6 *274:28 *397:A0 7.91367e-05
7 *274:28 *402:S0 3.98972e-05
8 *274:28 *449:A0 9.87163e-05
9 *274:28 *288:40 0.00056484
10 *274:28 *294:32 4.13072e-05
11 *274:28 *295:22 0.00109481
12 *274:28 *299:90 3.28028e-05
13 *274:28 *322:48 0.00108085
14 *402:A3 *274:28 3.04084e-05
15 *452:A0 *452:A2 0.000352404
16 *452:A1 *452:A2 7.49811e-05
17 *12:26 *274:28 0.00273769
18 *42:22 *274:28 0.000598095
19 *91:16 *274:28 0.000197533
20 *142:8 *452:A2 1.31657e-05
21 *178:12 *274:28 1.5714e-05
22 *182:14 *274:28 2.33103e-06
23 *185:26 *274:28 0.000276234
24 *208:32 *274:28 0.00148572
25 *217:44 *274:28 0.000169453
26 *262:26 *274:28 7.92497e-06
27 *265:68 *274:28 0.00163729
*RES
1 *644:Q *274:28 43.8523 
2 *274:28 *452:A2 19.9554 
*END

*D_NET *275 0.00948416
*CONN
*I *435:A1 I *D sky130_fd_sc_hd__a221oi_1
*I *643:Q O *D sky130_fd_sc_hd__edfxtp_1
*CAP
1 *435:A1 6.78414e-05
2 *643:Q 0.00205228
3 *275:36 0.00212012
4 *275:36 *380:A 4.25232e-05
5 *275:36 *435:B2 0.000260858
6 *275:36 *663:CLK 2.16355e-05
7 *275:36 *277:34 9.29815e-06
8 *275:36 *285:34 0.000312276
9 *275:36 *291:26 2.55052e-05
10 *275:36 *309:32 7.08723e-06
11 *275:36 *321:46 4.97935e-05
12 *450:A1 *275:36 7.62354e-06
13 *13:96 *275:36 0.00144797
14 *13:111 *275:36 0.000946057
15 *21:20 *275:36 8.67162e-05
16 *51:18 *435:A1 2.48286e-05
17 *51:18 *275:36 3.63714e-05
18 *60:62 *275:36 2.06988e-05
19 *130:52 *275:36 3.07192e-06
20 *156:77 *275:36 4.69495e-06
21 *160:142 *275:36 2.18468e-05
22 *211:24 *275:36 1.85493e-05
23 *216:36 *275:36 0
24 *216:46 *435:A1 0.000116986
25 *216:46 *275:36 1.37925e-05
26 *234:56 *275:36 0.00100917
27 *261:42 *275:36 9.04749e-05
28 *263:22 *275:36 6.63328e-05
29 *265:68 *275:36 6.95086e-06
30 *272:40 *275:36 0.000592807
*RES
1 *643:Q *275:36 49.6749 
2 *275:36 *435:A1 15.9964 
*END

*D_NET *277 0.0183903
*CONN
*I *407:A2 I *D sky130_fd_sc_hd__mux4_2
*I *641:Q O *D sky130_fd_sc_hd__edfxtp_1
*CAP
1 *407:A2 0
2 *641:Q 0.00463491
3 *277:34 0.00463491
4 *277:34 *452:S0 5.44749e-05
5 *277:34 *625:CLK 8.89637e-05
6 *277:34 *285:34 0.000142838
7 *277:34 *304:30 0.000291677
8 *407:A0 *277:34 0.000177772
9 *429:A1 *277:34 0.000195211
10 *469:A0 *277:34 7.36793e-05
11 *474:B2 *277:34 0.000317915
12 *477:B2 *277:34 5.03624e-05
13 *487:B1 *277:34 0.000149537
14 *12:26 *277:34 9.37169e-05
15 *13:111 *277:34 0.000168752
16 *35:28 *277:34 0.000340902
17 *91:16 *277:34 0
18 *95:18 *277:34 9.06436e-05
19 *182:14 *277:34 0.00138255
20 *182:20 *277:34 0.00037947
21 *218:56 *277:34 2.42739e-05
22 *226:36 *277:34 0.00107247
23 *231:28 *277:34 0.000765337
24 *248:34 *277:34 0.00248457
25 *255:32 *277:34 0
26 *266:28 *277:34 8.42879e-05
27 *266:42 *277:34 0.000157517
28 *271:26 *277:34 0.000524276
29 *275:36 *277:34 9.29815e-06
*RES
1 *641:Q *277:34 48.9245 
2 *277:34 *407:A2 9.24915 
*END

*D_NET *278 0.0099207
*CONN
*I *544:A1 I *D sky130_fd_sc_hd__a221oi_1
*I *683:Q O *D sky130_fd_sc_hd__edfxtp_1
*CAP
1 *544:A1 0.00079915
2 *683:Q 0.00182038
3 *278:24 0.00261953
4 *544:A1 *309:32 4.93499e-05
5 *544:A1 *361:30 2.37478e-05
6 *278:24 *543:S 0.000340853
7 *278:24 *561:CLK 1.21535e-05
8 *278:24 *337:8 1.40978e-05
9 *278:24 *351:127 0.000419776
10 *278:24 *356:29 9.7112e-06
11 *278:24 *356:33 3.75221e-05
12 *278:24 *356:85 3.19414e-05
13 *428:A1 *278:24 3.3985e-06
14 *428:A2 *544:A1 2.02035e-05
15 *13:23 *544:A1 6.7323e-05
16 *115:35 *544:A1 0.000830933
17 *116:29 *544:A1 0.000360582
18 *130:52 *544:A1 0.000943363
19 *157:30 *278:24 2.95155e-05
20 *214:18 *278:24 0.00142351
21 *227:18 *278:24 6.36477e-05
*RES
1 *683:Q *278:24 45.7749 
2 *278:24 *544:A1 41.628 
*END

*D_NET *279 0.019284
*CONN
*I *479:A3 I *D sky130_fd_sc_hd__mux4_2
*I *654:Q O *D sky130_fd_sc_hd__edfxtp_1
*CAP
1 *479:A3 3.00063e-05
2 *654:Q 0.0034541
3 *279:62 0.00159163
4 *279:38 0.00501572
5 *279:38 *379:B 0.00101671
6 *279:38 *458:A1 5.38612e-06
7 *279:38 *280:16 2.37478e-05
8 *279:38 *299:26 1.15217e-05
9 *279:38 *340:50 0.000598634
10 *279:38 *357:80 1.00778e-05
11 *279:62 *695:CLK 6.08467e-05
12 *279:62 *299:90 8.57022e-05
13 *279:62 *358:16 0.000156081
14 *279:62 *358:24 7.67019e-05
15 *378:D_N *279:38 0.000411166
16 *395:B *279:38 0.000181015
17 *410:A2 *279:38 0.000278207
18 *414:A1 *279:38 1.5714e-05
19 *433:B1 *279:38 6.87033e-05
20 *454:B1 *279:62 3.56604e-05
21 *457:A1 *279:62 5.67796e-06
22 *465:A3 *279:38 2.00887e-05
23 *480:B *479:A3 2.16355e-05
24 *483:A1 *279:62 0.000387806
25 *485:B1_N *279:38 7.35298e-05
26 *485:B1_N *279:62 8.34055e-05
27 *570:DE *279:38 6.7288e-06
28 *596:DE *279:62 5.04829e-06
29 *649:DE *279:38 8.5277e-06
30 *664:DE *279:38 7.29162e-06
31 *695:D *279:62 0.000179256
32 *68:38 *279:38 2.47911e-05
33 *153:22 *279:38 1.2128e-05
34 *160:56 *279:62 0.000121509
35 *162:35 *279:62 0.000159769
36 *163:14 *279:62 0
37 *170:41 *279:38 0.000214158
38 *170:47 *279:38 0.000804964
39 *170:133 *279:38 9.53042e-05
40 *182:133 *279:62 7.13655e-06
41 *182:152 *279:62 7.09666e-06
42 *186:28 *279:38 0.00359493
43 *233:34 *279:62 8.81531e-05
44 *236:32 *279:62 1.4091e-06
45 *251:24 *279:62 0.000112519
46 *253:58 *279:38 0.00011383
*RES
1 *654:Q *279:38 45.9059 
2 *279:38 *279:62 45.5727 
3 *279:62 *479:A3 14.4725 
*END

*D_NET *280 0.00647494
*CONN
*I *468:A3 I *D sky130_fd_sc_hd__mux4_2
*I *653:Q O *D sky130_fd_sc_hd__edfxtp_1
*CAP
1 *468:A3 0.00131991
2 *653:Q 0.000601742
3 *280:16 0.00192165
4 *468:A3 *468:S0 0.000293524
5 *468:A3 *648:CLK 7.12965e-05
6 *468:A3 *350:157 3.024e-05
7 *468:A3 *350:172 0.000111802
8 *468:A3 *364:12 2.16355e-05
9 *280:16 *458:A1 0.000615457
10 *280:16 *297:46 0.000152975
11 *280:16 *350:91 0.000120408
12 *280:16 *351:31 4.68652e-05
13 *280:16 *351:67 8.60963e-05
14 *280:16 *362:18 0
15 *425:A2 *468:A3 5.65463e-05
16 *468:A2 *468:A3 2.29454e-05
17 *492:A2 *468:A3 1.41976e-05
18 *645:DE *468:A3 6.00434e-05
19 *648:DE *468:A3 6.83509e-05
20 *146:26 *280:16 5.94475e-05
21 *153:22 *280:16 0.000556531
22 *158:37 *468:A3 0.000219532
23 *222:38 *468:A3 0
24 *279:38 *280:16 2.37478e-05
*RES
1 *653:Q *280:16 40.4033 
2 *280:16 *468:A3 45.0972 
*END

*D_NET *281 0.0186248
*CONN
*I *460:A3 I *D sky130_fd_sc_hd__mux4_2
*I *652:Q O *D sky130_fd_sc_hd__edfxtp_1
*CAP
1 *460:A3 0.00267677
2 *652:Q 0.00278777
3 *281:32 0.00546454
4 *460:A3 *397:A0 1.22606e-05
5 *460:A3 *288:40 4.0471e-05
6 *460:A3 *293:24 0.000393714
7 *281:32 *298:30 0.000434925
8 *281:32 *305:32 1.0174e-06
9 *281:32 *332:32 0.00043877
10 *281:32 *336:10 7.09666e-06
11 *378:D_N *281:32 0.000113478
12 *395:B *281:32 0.00275696
13 *430:A2 *281:32 0.000414124
14 *649:DE *460:A3 3.34544e-06
15 *11:38 *281:32 0.000373041
16 *13:35 *281:32 9.63049e-06
17 *31:28 *281:32 0
18 *81:262 *281:32 9.24261e-05
19 *82:212 *281:32 4.43225e-05
20 *158:53 *281:32 3.83145e-05
21 *158:69 *281:32 9.45853e-05
22 *158:101 *281:32 0.000896516
23 *162:50 *281:32 9.46355e-05
24 *163:58 *281:32 0
25 *182:90 *281:32 1.5714e-05
26 *183:16 *281:32 0.000419672
27 *209:52 *460:A3 2.4968e-05
28 *222:24 *281:32 0.000886612
29 *245:20 *281:32 2.27135e-05
30 *273:30 *460:A3 6.64392e-05
*RES
1 *652:Q *281:32 44.4223 
2 *281:32 *460:A3 48.6983 
*END

*D_NET *282 0.0191974
*CONN
*I *452:A3 I *D sky130_fd_sc_hd__mux4_2
*I *651:Q O *D sky130_fd_sc_hd__edfxtp_1
*CAP
1 *452:A3 0.00134542
2 *651:Q 0.00294568
3 *282:40 0.0042911
4 *452:A3 *418:A1 0.000174134
5 *452:A3 *481:A2 3.91238e-05
6 *452:A3 *481:S0 6.89851e-05
7 *452:A3 *350:460 0
8 *282:40 *691:CLK 0.00015758
9 *282:40 *306:28 0.000311674
10 *282:40 *343:167 3.77568e-05
11 *282:40 *346:62 7.93531e-05
12 *428:A1 *282:40 0.000340119
13 *452:A0 *452:A3 0.000112231
14 *452:A2 *452:A3 0.000107496
15 *503:B *282:40 9.82202e-06
16 *557:A1 *282:40 0.000161521
17 *566:DE *282:40 0.000389731
18 *651:DE *282:40 0.000377777
19 *670:DE *452:A3 3.1601e-05
20 *670:DE *282:40 9.06585e-05
21 *4:26 *282:40 4.79809e-06
22 *13:23 *282:40 9.22862e-05
23 *13:62 *282:40 0.000226438
24 *36:14 *452:A3 2.60879e-06
25 *93:30 *282:40 1.48365e-05
26 *103:30 *282:40 0.00112683
27 *108:26 *282:40 0.00261349
28 *111:24 *282:40 0.00284669
29 *113:10 *282:40 2.27135e-05
30 *120:73 *282:40 1.5714e-05
31 *149:22 *282:40 0.000159526
32 *161:16 *282:40 3.27616e-06
33 *166:28 *282:40 0.000153427
34 *168:24 *282:40 4.2303e-05
35 *181:55 *282:40 0.000620393
36 *183:40 *452:A3 5.01255e-05
37 *219:38 *282:40 9.28626e-05
38 *257:38 *282:40 3.09125e-05
39 *262:26 *452:A3 6.37652e-06
*RES
1 *651:Q *282:40 46.1876 
2 *282:40 *452:A3 40.1941 
*END

*D_NET *283 0.0103545
*CONN
*I *435:B2 I *D sky130_fd_sc_hd__a221oi_1
*I *650:Q O *D sky130_fd_sc_hd__edfxtp_1
*CAP
1 *435:B2 0.00175752
2 *650:Q 0.00112498
3 *283:32 0.0028825
4 *435:B2 *333:26 3.82228e-05
5 *435:B2 *351:403 1.34424e-05
6 *435:B2 *351:420 8.33606e-05
7 *435:B2 *366:192 1.86819e-05
8 *283:32 *643:CLK 6.08467e-05
9 *283:32 *663:CLK 3.62221e-05
10 *283:32 *293:56 5.21493e-05
11 *283:32 *297:46 4.50795e-05
12 *283:32 *309:32 0.000140062
13 *457:A2 *435:B2 0.00118896
14 *643:DE *283:32 9.47227e-05
15 *685:DE *283:32 1.03403e-05
16 *13:96 *435:B2 6.68644e-06
17 *13:111 *435:B2 1.55199e-05
18 *14:14 *435:B2 0.000105717
19 *60:62 *435:B2 0.000139079
20 *156:77 *283:32 0.000112772
21 *160:142 *283:32 0.000120237
22 *169:71 *435:B2 0.000621911
23 *182:197 *435:B2 0.000323157
24 *208:32 *435:B2 0.000153427
25 *211:24 *435:B2 0.000104754
26 *212:28 *283:32 1.4379e-05
27 *212:46 *283:32 0.000108438
28 *263:22 *435:B2 1.66771e-05
29 *265:68 *435:B2 0.000703769
30 *275:36 *435:B2 0.000260858
*RES
1 *650:Q *283:32 46.6473 
2 *283:32 *435:B2 29.2538 
*END

*D_NET *285 0.011566
*CONN
*I *407:A3 I *D sky130_fd_sc_hd__mux4_2
*I *648:Q O *D sky130_fd_sc_hd__edfxtp_1
*CAP
1 *407:A3 4.8085e-05
2 *648:Q 0.00241927
3 *285:34 0.00246736
4 *285:34 *476:A0 1.5714e-05
5 *285:34 *313:52 0.000988825
6 *285:34 *350:157 1.82895e-05
7 *407:A0 *407:A3 4.23858e-05
8 *477:B2 *285:34 1.5714e-05
9 *537:B2 *285:34 2.26985e-05
10 *13:111 *285:34 5.14594e-05
11 *35:28 *285:34 0.00086788
12 *42:22 *285:34 0.000507077
13 *51:18 *285:34 4.8878e-06
14 *66:20 *285:34 0
15 *138:28 *285:34 0.00168418
16 *143:14 *285:34 0
17 *172:18 *285:34 0.000114409
18 *211:24 *285:34 0
19 *216:46 *285:34 9.25476e-05
20 *225:34 *285:34 1.42649e-05
21 *248:34 *285:34 0.000679018
22 *273:30 *285:34 0.00105685
23 *275:36 *285:34 0.000312276
24 *277:34 *285:34 0.000142838
*RES
1 *648:Q *285:34 48.9731 
2 *285:34 *407:A3 15.0271 
*END

*D_NET *286 0.00934867
*CONN
*I *544:B2 I *D sky130_fd_sc_hd__a221oi_1
*I *682:Q O *D sky130_fd_sc_hd__edfxtp_1
*CAP
1 *544:B2 8.53533e-05
2 *682:Q 0.00256897
3 *286:18 0.00265432
4 *286:18 *538:A1 0.0001549
5 *286:18 *622:CLK 0.000196971
6 *286:18 *1204:A 9.71439e-06
7 *286:18 *297:46 0.000138948
8 *286:18 *350:57 0.00316661
9 *286:18 *361:28 1.62054e-05
10 *286:18 *361:30 1.77537e-06
11 *286:18 *362:18 0
12 *428:A2 *286:18 0
13 *504:B *286:18 0
14 *13:8 *286:18 0
15 *24:16 *286:18 0
16 *107:24 *286:18 4.56931e-05
17 *166:113 *286:18 1.43905e-05
18 *170:55 *286:18 9.76824e-06
19 *228:40 *286:18 7.98886e-05
20 *249:28 *286:18 0.000201905
21 *253:20 *286:18 3.24705e-06
*RES
1 *682:Q *286:18 45.841 
2 *286:18 *544:B2 15.4612 
*END

*D_NET *287 0.0108963
*CONN
*I *481:A0 I *D sky130_fd_sc_hd__mux4_2
*I *661:Q O *D sky130_fd_sc_hd__edfxtp_1
*CAP
1 *481:A0 0
2 *661:Q 0.00109913
3 *287:34 0.00111308
4 *287:24 0.00221221
5 *287:24 *684:CLK 0
6 *287:24 *293:42 5.54675e-05
7 *287:24 *313:52 0.000357679
8 *287:24 *330:48 7.34365e-05
9 *287:24 *365:10 0.000372679
10 *287:34 *481:A1 0.000157107
11 *405:B *287:34 2.89106e-05
12 *487:A2 *287:34 0.000447845
13 *586:DE *287:24 0.000102301
14 *21:20 *287:24 0.000740025
15 *21:20 *287:34 0.00133221
16 *72:30 *287:24 3.60286e-06
17 *160:120 *287:24 0.000183319
18 *167:117 *287:24 0.000123271
19 *183:40 *287:34 4.97617e-05
20 *188:16 *287:34 4.84169e-06
21 *188:30 *287:24 0.000280139
22 *188:30 *287:34 0.00209774
23 *242:18 *287:24 6.15246e-05
*RES
1 *661:Q *287:24 48.1197 
2 *287:24 *287:34 45.1371 
3 *287:34 *481:A0 9.24915 
*END

*D_NET *288 0.00910387
*CONN
*I *466:A0 I *D sky130_fd_sc_hd__mux4_2
*I *660:Q O *D sky130_fd_sc_hd__edfxtp_1
*CAP
1 *466:A0 0.000558191
2 *660:Q 0.00208512
3 *288:40 0.00264331
4 *466:A0 *466:A1 0.000110297
5 *466:A0 *466:S1 6.08467e-05
6 *466:A0 *304:30 0.000114594
7 *288:40 *397:A0 1.70622e-05
8 *288:40 *449:A0 0.000580187
9 *288:40 *536:A0 8.4649e-05
10 *288:40 *293:24 7.74447e-05
11 *288:40 *299:90 0.000369282
12 *288:40 *307:32 6.23101e-05
13 *288:40 *312:20 9.54708e-05
14 *288:40 *330:48 3.46393e-06
15 *288:40 *359:12 6.08467e-05
16 *460:A3 *288:40 4.0471e-05
17 *621:D *288:40 4.19529e-05
18 *12:26 *288:40 9.32455e-05
19 *23:26 *288:40 5.38612e-06
20 *31:58 *288:40 1.15862e-05
21 *70:30 *288:40 1.38823e-05
22 *182:167 *466:A0 0.000894377
23 *182:167 *288:40 3.95516e-05
24 *209:32 *288:40 0.000125341
25 *226:36 *288:40 0.000323396
26 *241:48 *288:40 7.6276e-06
27 *263:34 *288:40 1.91359e-05
28 *265:68 *288:40 0
29 *274:28 *288:40 0.00056484
*RES
1 *660:Q *288:40 48.3641 
2 *288:40 *466:A0 23.6688 
*END

*D_NET *289 0.0117771
*CONN
*I *458:A0 I *D sky130_fd_sc_hd__mux4_2
*I *659:Q O *D sky130_fd_sc_hd__edfxtp_1
*CAP
1 *458:A0 0.00123055
2 *659:Q 0.00143435
3 *289:20 0.0026649
4 *458:A0 *645:CLK 5.04829e-06
5 *458:A0 *292:24 0.000258625
6 *458:A0 *305:32 0.00210254
7 *458:A0 *313:52 5.60804e-05
8 *458:A0 *323:32 5.62194e-06
9 *458:A0 *351:109 0.000110247
10 *458:A0 *351:210 6.7212e-06
11 *458:A0 *364:8 2.02035e-05
12 *458:A0 *364:28 0.000120886
13 *289:20 *539:S 5.9852e-05
14 *289:20 *635:CLK 3.99086e-06
15 *289:20 *1203:A 1.27749e-05
16 *289:20 *293:56 0.000414515
17 *289:20 *297:24 5.0806e-05
18 *289:20 *323:32 3.77568e-05
19 *289:20 *327:58 1.41181e-05
20 *289:20 *365:35 0.00013082
21 *457:A2 *458:A0 1.75436e-05
22 *461:A3 *458:A0 1.31649e-05
23 *461:A3 *289:20 0.000110297
24 *539:A0 *289:20 1.29759e-05
25 *635:DE *289:20 1.60725e-05
26 *11:38 *458:A0 0.00209154
27 *13:23 *458:A0 0.000204932
28 *13:96 *458:A0 3.17436e-05
29 *111:24 *458:A0 0.000144702
30 *179:26 *458:A0 6.88661e-06
31 *229:32 *289:20 0.000110297
32 *272:40 *458:A0 0.000276572
*RES
1 *659:Q *289:20 48.8104 
2 *289:20 *458:A0 35.4521 
*END

*D_NET *290 0.0105509
*CONN
*I *449:A0 I *D sky130_fd_sc_hd__mux4_2
*I *658:Q O *D sky130_fd_sc_hd__edfxtp_1
*CAP
1 *449:A0 0.00125664
2 *658:Q 0.000902534
3 *290:22 0.00215917
4 *449:A0 *397:A0 3.70199e-06
5 *449:A0 *295:22 0.000999705
6 *449:A0 *322:48 2.9808e-05
7 *290:22 *313:52 0.000196859
8 *290:22 *366:53 5.04829e-06
9 *445:A2 *449:A0 7.72394e-06
10 *454:A1 *449:A0 0.000204936
11 *472:B1 *449:A0 7.09666e-06
12 *4:26 *449:A0 5.47777e-05
13 *13:70 *449:A0 0.00020071
14 *54:22 *449:A0 0.000150008
15 *64:10 *290:22 0.000448669
16 *80:188 *290:22 1.67484e-05
17 *161:162 *290:22 3.33544e-05
18 *167:117 *290:22 0.000247189
19 *182:14 *449:A0 3.74542e-05
20 *185:26 *449:A0 0.00203988
21 *209:32 *290:22 0.000125512
22 *213:20 *290:22 8.06657e-05
23 *217:44 *449:A0 0.000175767
24 *217:62 *290:22 0.000157199
25 *231:28 *449:A0 0.000330825
26 *274:28 *449:A0 9.87163e-05
27 *288:40 *449:A0 0.000580187
*RES
1 *658:Q *290:22 47.1645 
2 *290:22 *449:A0 29.939 
*END

*D_NET *291 0.00912253
*CONN
*I *431:A0 I *D sky130_fd_sc_hd__mux2i_1
*I *657:Q O *D sky130_fd_sc_hd__edfxtp_1
*CAP
1 *431:A0 0.00153585
2 *657:Q 0.0012173
3 *291:26 0.00275315
4 *431:A0 *434:S 4.47179e-05
5 *431:A0 *296:28 0.000839921
6 *431:A0 *318:16 0.00038834
7 *431:A0 *322:48 0.000347887
8 *431:A0 *329:28 0.000202105
9 *431:A0 *333:26 3.86104e-05
10 *431:A0 *347:134 0.00033205
11 *431:A0 *366:98 8.38013e-06
12 *291:26 *380:A 0.000143683
13 *291:26 *296:28 3.5534e-06
14 *291:26 *333:26 0
15 *291:26 *334:54 3.75221e-05
16 *291:26 *366:110 0.000123386
17 *416:A2 *431:A0 6.7179e-06
18 *434:A1 *431:A0 0.000135608
19 *450:A1 *291:26 0.000182585
20 *545:A2 *431:A0 7.40684e-06
21 *607:D *431:A0 8.68769e-06
22 *12:30 *291:26 6.51527e-05
23 *48:30 *291:26 1.04978e-05
24 *49:12 *431:A0 1.1718e-05
25 *80:245 *291:26 8.62625e-06
26 *80:270 *291:26 6.85778e-05
27 *88:32 *431:A0 7.38603e-05
28 *169:81 *291:26 6.04168e-06
29 *169:96 *291:26 9.88016e-06
30 *172:18 *291:26 5.481e-05
31 *213:20 *291:26 2.86326e-05
32 *218:56 *431:A0 0.000114595
33 *218:56 *291:26 3.34273e-05
34 *220:64 *431:A0 0.000110182
35 *259:28 *431:A0 0.000109796
36 *263:22 *291:26 0
37 *263:34 *431:A0 2.17105e-06
38 *264:12 *291:26 3.16019e-05
39 *275:36 *291:26 2.55052e-05
*RES
1 *657:Q *291:26 49.7915 
2 *291:26 *431:A0 43.3863 
*END

*D_NET *292 0.00492362
*CONN
*I *417:A0 I *D sky130_fd_sc_hd__mux2i_1
*I *656:Q O *D sky130_fd_sc_hd__edfxtp_1
*CAP
1 *417:A0 0.000520975
2 *656:Q 0.000466758
3 *292:24 0.000987733
4 *417:A0 *400:B 6.08467e-05
5 *417:A0 *417:S 7.89999e-05
6 *417:A0 *350:91 3.82228e-05
7 *417:A0 *351:12 0.000343367
8 *417:A0 *351:31 0.00035002
9 *417:A0 *351:67 7.92757e-06
10 *292:24 *323:32 0.000125187
11 *292:24 *347:51 0.000174832
12 *292:24 *351:127 0.000135886
13 *458:A0 *292:24 0.000258625
14 *461:A3 *417:A0 7.70172e-06
15 *656:DE *292:24 6.48105e-05
16 *167:167 *417:A0 3.10935e-05
17 *167:167 *292:24 0.000304657
18 *182:90 *292:24 3.42041e-05
19 *229:32 *292:24 4.03324e-05
20 *245:20 *417:A0 0.000737797
21 *272:18 *292:24 0.000132673
22 *272:40 *417:A0 8.62625e-06
23 *272:40 *292:24 1.23455e-05
*RES
1 *656:Q *292:24 38.6795 
2 *292:24 *417:A0 32.158 
*END

*D_NET *293 0.0126481
*CONN
*I *404:A0 I *D sky130_fd_sc_hd__mux2i_1
*I *655:Q O *D sky130_fd_sc_hd__edfxtp_1
*CAP
1 *404:A0 0.000231997
2 *655:Q 0.000654612
3 *293:56 0.0017255
4 *293:42 0.00280217
5 *293:24 0.00196328
6 *404:A0 *404:A1 0.000107254
7 *404:A0 *404:S 0.000158451
8 *404:A0 *638:CLK 1.15389e-05
9 *404:A0 *367:34 4.33789e-07
10 *404:A0 *367:38 6.79126e-05
11 *293:24 *336:58 9.88745e-05
12 *293:24 *359:27 7.5909e-06
13 *293:42 *313:20 5.04829e-06
14 *293:42 *359:27 0
15 *293:42 *359:69 6.53173e-05
16 *293:42 *359:136 1.6839e-05
17 *293:56 *297:24 6.77031e-06
18 *293:56 *327:58 8.58503e-05
19 *293:56 *340:50 1.91391e-05
20 *457:A1 *293:24 9.05391e-05
21 *460:A3 *293:24 0.000393714
22 *539:A1 *293:56 0.000214882
23 *594:DE *404:A0 0.000115281
24 *657:DE *293:56 0.000343365
25 *681:DE *404:A0 0.000119957
26 *697:D *293:24 4.03324e-05
27 *21:18 *404:A0 0.000262098
28 *21:20 *293:24 0
29 *21:20 *293:42 0.000304768
30 *23:26 *293:24 5.98389e-05
31 *81:177 *293:24 0.000224863
32 *82:268 *293:56 0.000148288
33 *158:39 *293:56 5.79807e-05
34 *158:53 *293:56 0.000109116
35 *160:142 *293:56 5.3662e-05
36 *162:93 *293:56 0.000251307
37 *162:107 *293:56 8.5841e-05
38 *167:117 *293:42 5.63639e-06
39 *168:63 *293:56 6.14756e-06
40 *169:46 *293:56 3.1399e-05
41 *212:46 *293:56 2.05513e-06
42 *228:40 *293:56 9.58351e-05
43 *234:32 *293:42 0.000188874
44 *235:24 *293:56 0.00046218
45 *241:48 *293:24 0.000216805
46 *268:30 *293:42 2.8182e-06
47 *270:24 *293:56 0.000132368
48 *283:32 *293:56 5.21493e-05
49 *287:24 *293:42 5.54675e-05
50 *288:40 *293:24 7.74447e-05
51 *289:20 *293:56 0.000414515
*RES
1 *655:Q *293:24 45.7142 
2 *293:24 *293:42 37.913 
3 *293:42 *293:56 47.6551 
4 *293:56 *404:A0 25.3359 
*END

*D_NET *294 0.0165745
*CONN
*I *546:A0 I *D sky130_fd_sc_hd__mux2i_1
*I *681:Q O *D sky130_fd_sc_hd__edfxtp_1
*CAP
1 *546:A0 0.000598471
2 *681:Q 0.0022752
3 *294:32 0.00287367
4 *546:A0 *295:22 0.000117535
5 *546:A0 *302:24 2.81678e-06
6 *546:A0 *307:32 2.18679e-05
7 *546:A0 *313:20 0.000448578
8 *294:32 *369:A 0.000481388
9 *294:32 *300:22 0.000271656
10 *294:32 *321:46 5.60804e-05
11 *294:32 *322:48 0.000963047
12 *294:32 *368:107 1.9101e-05
13 *430:A2 *294:32 0.00133395
14 *593:D *294:32 1.24546e-05
15 *14:14 *294:32 0.000323785
16 *53:22 *294:32 6.56681e-06
17 *70:30 *294:32 0.000624105
18 *93:30 *294:32 5.54293e-05
19 *133:8 *546:A0 0.000209312
20 *142:12 *546:A0 0.000685735
21 *144:34 *546:A0 0.000147044
22 *170:202 *294:32 0.000133527
23 *185:26 *294:32 0.00156905
24 *220:28 *546:A0 1.5714e-05
25 *220:28 *294:32 0.000557941
26 *225:34 *294:32 0.000764846
27 *231:38 *546:A0 0
28 *236:32 *294:32 0.00077399
29 *238:22 *294:32 1.5714e-05
30 *247:28 *294:32 0.00075677
31 *263:34 *546:A0 8.68791e-05
32 *265:68 *294:32 0.000330969
33 *274:28 *294:32 4.13072e-05
*RES
1 *681:Q *294:32 33.6223 
2 *294:32 *546:A0 43.5418 
*END

*D_NET *295 0.0107424
*CONN
*I *481:A1 I *D sky130_fd_sc_hd__mux4_2
*I *684:Q O *D sky130_fd_sc_hd__edfxtp_1
*CAP
1 *481:A1 0.000352362
2 *684:Q 0.00172194
3 *295:22 0.0020743
4 *481:A1 *457:S0 0.000107845
5 *295:22 *312:20 0.000866854
6 *295:22 *313:20 0.000453271
7 *449:A0 *295:22 0.000999705
8 *465:A3 *295:22 0.000410527
9 *470:A1 *481:A1 7.37835e-05
10 *546:A0 *295:22 0.000117535
11 *48:10 *295:22 0.000108448
12 *68:38 *481:A1 7.86825e-06
13 *71:14 *481:A1 1.5714e-05
14 *81:202 *295:22 9.34101e-05
15 *133:12 *295:22 0.000256322
16 *142:12 *295:22 5.2504e-06
17 *144:34 *295:22 0.000150585
18 *182:14 *481:A1 2.88548e-05
19 *183:40 *481:A1 0.000157107
20 *185:26 *295:22 2.97235e-05
21 *217:44 *295:22 9.17705e-05
22 *220:28 *295:22 5.35941e-05
23 *231:28 *295:22 0.000656747
24 *251:24 *295:22 0.00042388
25 *262:26 *295:22 0.000233071
26 *266:42 *481:A1 0
27 *274:28 *295:22 0.00109481
28 *287:34 *481:A1 0.000157107
*RES
1 *684:Q *295:22 48.4009 
2 *295:22 *481:A1 26.364 
*END

*D_NET *296 0.00684055
*CONN
*I *466:A1 I *D sky130_fd_sc_hd__mux4_2
*I *667:Q O *D sky130_fd_sc_hd__edfxtp_1
*CAP
1 *466:A1 0.0001547
2 *667:Q 0.00118267
3 *296:28 0.00133737
4 *466:A1 *466:S1 7.09666e-06
5 *296:28 *451:A1 0.000248499
6 *296:28 *536:A0 4.39732e-05
7 *296:28 *347:134 0.00119449
8 *296:28 *366:98 1.84848e-05
9 *431:A0 *296:28 0.000839921
10 *434:A0 *296:28 0.000306817
11 *455:A1 *466:A1 2.57465e-06
12 *466:A0 *466:A1 0.000110297
13 *593:D *296:28 1.5714e-05
14 *604:DE *296:28 6.48546e-05
15 *88:32 *296:28 5.16283e-06
16 *157:131 *296:28 0.000231479
17 *165:10 *466:A1 0.000222214
18 *182:167 *466:A1 0.000107496
19 *200:10 *466:A1 8.5637e-05
20 *213:20 *296:28 0.000157277
21 *226:36 *296:28 0.000378114
22 *259:28 *296:28 2.57847e-05
23 *263:34 *296:28 9.63689e-05
24 *291:26 *296:28 3.5534e-06
*RES
1 *667:Q *296:28 46.9721 
2 *296:28 *466:A1 23.8507 
*END

*D_NET *297 0.0123208
*CONN
*I *458:A1 I *D sky130_fd_sc_hd__mux4_2
*I *666:Q O *D sky130_fd_sc_hd__edfxtp_1
*CAP
1 *458:A1 0.000686344
2 *666:Q 0.00143998
3 *297:46 0.00215769
4 *297:24 0.00291133
5 *458:A1 *495:A1 5.11853e-06
6 *458:A1 *350:91 0.000225608
7 *297:24 *336:159 1.02986e-05
8 *297:24 *347:134 3.73617e-05
9 *297:46 *423:A0 1.28732e-05
10 *297:46 *643:CLK 1.03403e-05
11 *297:46 *1173:A 0.000209119
12 *297:46 *332:32 6.85778e-05
13 *297:46 *351:31 2.82916e-05
14 *297:46 *351:109 7.61069e-05
15 *297:46 *362:18 0
16 *590:DE *297:24 0
17 *643:DE *297:46 1.5769e-05
18 *676:DE *297:46 0.000351512
19 *11:38 *297:46 1.91246e-05
20 *76:16 *297:46 6.99044e-06
21 *81:95 *297:24 0.000131864
22 *81:262 *458:A1 7.89747e-05
23 *88:32 *297:24 7.31369e-05
24 *111:24 *458:A1 0.000155294
25 *153:22 *458:A1 7.15835e-05
26 *157:131 *297:24 4.29675e-06
27 *162:87 *297:24 1.86001e-05
28 *162:93 *297:24 3.82054e-05
29 *167:167 *297:46 0.000213055
30 *168:63 *297:24 3.94532e-05
31 *168:131 *297:46 4.23352e-05
32 *169:27 *297:24 0.000296993
33 *169:46 *297:24 0.000198707
34 *212:46 *297:24 0.000306835
35 *219:38 *297:24 0.000445401
36 *228:40 *297:46 5.94052e-06
37 *229:32 *297:24 4.97935e-05
38 *245:20 *458:A1 0.000661817
39 *245:20 *297:46 0.00013082
40 *249:28 *297:46 0
41 *253:58 *297:46 1.99186e-05
42 *270:24 *297:24 4.9898e-05
43 *279:38 *458:A1 5.38612e-06
44 *280:16 *458:A1 0.000615457
45 *280:16 *297:46 0.000152975
46 *283:32 *297:46 4.50795e-05
47 *286:18 *297:46 0.000138948
48 *289:20 *297:24 5.0806e-05
49 *293:56 *297:24 6.77031e-06
*RES
1 *666:Q *297:24 48.3546 
2 *297:24 *297:46 48.7095 
3 *297:46 *458:A1 45.6547 
*END

*D_NET *298 0.0139104
*CONN
*I *449:A1 I *D sky130_fd_sc_hd__mux4_2
*I *665:Q O *D sky130_fd_sc_hd__edfxtp_1
*CAP
1 *449:A1 3.00899e-05
2 *665:Q 0.00249984
3 *298:30 0.00252993
4 *449:A1 *314:26 1.04624e-05
5 *298:30 *379:A 0.000140134
6 *298:30 *379:B 0.00184742
7 *298:30 *449:A2 0.00016491
8 *298:30 *449:S0 1.91391e-05
9 *298:30 *481:A3 0.000115045
10 *298:30 *308:18 0.000133334
11 *298:30 *314:26 3.58044e-05
12 *298:30 *332:32 0.000235045
13 *298:30 *346:62 0.00171866
14 *298:30 *350:454 0.000135622
15 *378:D_N *298:30 4.68065e-05
16 *470:A1 *449:A1 2.02035e-05
17 *11:44 *298:30 0.000247297
18 *13:62 *449:A1 4.99006e-05
19 *13:62 *298:30 0.00182237
20 *36:14 *298:30 1.34605e-05
21 *81:69 *298:30 1.43041e-05
22 *82:174 *298:30 2.99291e-05
23 *93:30 *298:30 0.0010348
24 *148:28 *298:30 0.000153427
25 *188:30 *298:30 1.75355e-05
26 *220:28 *298:30 0.000155692
27 *244:24 *298:30 0.000254358
28 *281:32 *298:30 0.000434925
*RES
1 *665:Q *298:30 48.8018 
2 *298:30 *449:A1 19.2506 
*END

*D_NET *299 0.0219235
*CONN
*I *431:A1 I *D sky130_fd_sc_hd__mux2i_1
*I *664:Q O *D sky130_fd_sc_hd__edfxtp_1
*CAP
1 *431:A1 0.00129328
2 *664:Q 0.00149867
3 *299:90 0.00399308
4 *299:60 0.0036188
5 *299:26 0.00241767
6 *431:A1 *434:S 1.42173e-06
7 *431:A1 *351:542 1.47251e-05
8 *299:26 *655:CLK 6.37652e-06
9 *299:26 *325:20 1.82679e-05
10 *299:26 *336:18 1.16711e-05
11 *299:26 *358:16 6.22482e-05
12 *299:60 *457:S0 0
13 *299:60 *308:18 0.000127164
14 *299:60 *314:26 5.19205e-05
15 *299:90 *397:A0 0.000228442
16 *299:90 *451:A1 0.000602734
17 *299:90 *536:A0 2.18904e-05
18 *299:90 *304:30 0.000507268
19 *299:90 *308:18 0
20 *299:90 *336:58 0.000550223
21 dout[5] *431:A1 8.11105e-05
22 *393:A2 *299:26 0.000523621
23 *401:A1 *431:A1 0.00132033
24 *401:B2 *431:A1 0.000217662
25 *401:C1 *431:A1 2.1203e-06
26 *411:B1 *431:A1 0
27 *429:A1 *431:A1 8.46605e-05
28 *462:A1 *431:A1 4.0869e-05
29 *462:A2 *431:A1 0.000124787
30 *465:A3 *299:90 4.31868e-05
31 *485:B1_N *299:60 0.000133323
32 *564:D *431:A1 0.000119745
33 *571:D *299:90 0.00014328
34 *578:D *299:60 0.000207363
35 *578:DE *299:60 0.000336317
36 *649:DE *299:90 9.98335e-05
37 *686:DE *299:90 6.88361e-05
38 *12:26 *299:90 2.65163e-05
39 *21:20 *299:90 3.98296e-05
40 *68:38 *299:60 1.3813e-05
41 *110:40 *431:A1 0.000153208
42 *125:28 *431:A1 1.07802e-06
43 *144:34 *299:90 0.000304981
44 *156:101 *299:26 4.69495e-06
45 *160:37 *299:26 3.65281e-05
46 *160:56 *299:90 4.12559e-05
47 *160:81 *299:90 7.66983e-06
48 *163:14 *299:26 0
49 *163:43 *299:26 0
50 *182:133 *299:60 1.82268e-05
51 *182:133 *299:90 1.93779e-05
52 *182:152 *299:90 0.000356317
53 *188:30 *299:60 3.18715e-05
54 *210:20 *299:26 1.9101e-05
55 *216:36 *431:A1 0.000585258
56 *217:44 *299:90 0.000540002
57 *220:64 *431:A1 4.25507e-05
58 *225:34 *299:60 6.45975e-05
59 *233:34 *299:90 2.1203e-06
60 *236:32 *299:60 0.000129091
61 *251:24 *299:90 0
62 *254:22 *299:26 2.38934e-06
63 *260:26 *299:60 6.99979e-05
64 *265:68 *299:90 3.02641e-05
65 *268:52 *299:26 0.000310562
66 *274:28 *299:90 3.28028e-05
67 *279:38 *299:26 1.15217e-05
68 *279:62 *299:90 8.57022e-05
69 *288:40 *299:90 0.000369282
*RES
1 *664:Q *299:26 49.2509 
2 *299:26 *299:60 45.8758 
3 *299:60 *299:90 39.6827 
4 *299:90 *431:A1 37.2206 
*END

*D_NET *300 0.00651496
*CONN
*I *417:A1 I *D sky130_fd_sc_hd__mux2i_1
*I *663:Q O *D sky130_fd_sc_hd__edfxtp_1
*CAP
1 *417:A1 0.000506748
2 *663:Q 0.00170765
3 *300:22 0.0022144
4 *417:A1 *417:S 7.4935e-05
5 *417:A1 *327:58 1.41307e-05
6 *417:A1 *328:52 0.000123703
7 *417:A1 *367:22 0.000110297
8 *300:22 *476:A1 5.11322e-06
9 *300:22 *328:52 4.69495e-06
10 *300:22 *334:24 6.72353e-05
11 *300:22 *368:31 1.87713e-05
12 *300:22 *368:99 2.12522e-05
13 *430:A2 *300:22 2.11081e-05
14 *632:D *300:22 0.000190999
15 *657:DE *300:22 0
16 *663:DE *300:22 0.000127894
17 *676:DE *417:A1 8.09529e-05
18 *677:DE *300:22 2.82171e-06
19 *35:28 *417:A1 0.000107496
20 *35:28 *300:22 0.000352167
21 *93:30 *300:22 0.000163734
22 *155:93 *300:22 6.22259e-05
23 *156:58 *300:22 5.39635e-06
24 *156:77 *300:22 0.000210829
25 *158:39 *300:22 1.66771e-05
26 *217:80 *300:22 2.46595e-05
27 *222:24 *300:22 7.40684e-06
28 *294:32 *300:22 0.000271656
*RES
1 *663:Q *300:22 47.6468 
2 *300:22 *417:A1 26.8667 
*END

*D_NET *301 0.00605395
*CONN
*I *404:A1 I *D sky130_fd_sc_hd__mux2i_1
*I *662:Q O *D sky130_fd_sc_hd__edfxtp_1
*CAP
1 *404:A1 6.53109e-05
2 *662:Q 0.00122358
3 *301:30 0.00128889
4 *301:30 *423:A0 9.66954e-05
5 *301:30 *1197:A 0.000268497
6 *301:30 *305:32 0.000703798
7 *301:30 *309:32 1.79018e-05
8 *301:30 *340:50 5.60804e-05
9 *301:30 *351:109 7.40684e-06
10 *404:A0 *404:A1 0.000107254
11 *453:S1 *301:30 0.000156955
12 *11:38 *301:30 8.60757e-05
13 *13:35 *301:30 0.000670421
14 *21:18 *404:A1 2.05537e-05
15 *76:16 *301:30 0.000135123
16 *130:52 *301:30 0.000158469
17 *169:8 *301:30 0.000311084
18 *169:27 *301:30 9.04241e-05
19 *182:90 *301:30 0.00049002
20 *219:38 *301:30 5.60804e-05
21 *244:24 *301:30 4.33309e-05
*RES
1 *662:Q *301:30 46.9229 
2 *301:30 *404:A1 15.5456 
*END

*D_NET *302 0.0060505
*CONN
*I *546:A1 I *D sky130_fd_sc_hd__mux2i_1
*I *680:Q O *D sky130_fd_sc_hd__edfxtp_1
*CAP
1 *546:A1 0
2 *680:Q 0.00162465
3 *302:24 0.00162465
4 *302:24 *310:36 0.00137693
5 *546:A0 *302:24 2.81678e-06
6 *585:DE *302:24 2.75854e-05
7 *649:DE *302:24 0.00076573
8 *31:46 *302:24 0.000135127
9 *81:124 *302:24 6.20419e-06
10 *81:131 *302:24 3.03316e-05
11 *81:150 *302:24 0.000200996
12 *158:69 *302:24 4.25507e-05
13 *160:81 *302:24 1.32841e-05
14 *182:152 *302:24 0.000186293
15 *231:38 *302:24 1.13617e-05
16 *233:34 *302:24 1.99543e-06
17 *263:34 *302:24 0
*RES
1 *680:Q *302:24 44.2264 
2 *302:24 *546:A1 9.24915 
*END

*D_NET *303 0.00368762
*CONN
*I *481:A2 I *D sky130_fd_sc_hd__mux4_2
*I *691:Q O *D sky130_fd_sc_hd__edfxtp_1
*CAP
1 *481:A2 0.000836785
2 *691:Q 0.000836785
3 *481:A2 *350:460 0.000250405
4 *481:A2 *354:40 1.85244e-05
5 *481:A2 *357:27 1.5714e-05
6 *452:A3 *481:A2 3.91238e-05
7 *469:A2 *481:A2 0.000597388
8 *559:DE *481:A2 1.5714e-05
9 *670:DE *481:A2 0.000116777
10 *71:14 *481:A2 0.000573433
11 *183:40 *481:A2 0.000349452
12 *262:26 *481:A2 3.75221e-05
*RES
1 *691:Q *481:A2 49.3716 
*END

*D_NET *304 0.0104503
*CONN
*I *466:A2 I *D sky130_fd_sc_hd__mux4_2
*I *690:Q O *D sky130_fd_sc_hd__edfxtp_1
*CAP
1 *466:A2 0
2 *690:Q 0.00336764
3 *304:30 0.00336764
4 *304:30 *451:A1 3.98378e-05
5 *304:30 *350:414 0.000248204
6 *454:B1 *304:30 0
7 *457:A1 *304:30 0.000367103
8 *457:A2 *304:30 0.000110297
9 *466:A0 *304:30 0.000114594
10 *3:93 *304:30 4.08205e-05
11 *4:26 *304:30 0.000458469
12 *75:30 *304:30 3.5534e-06
13 *110:40 *304:30 1.91391e-05
14 *132:22 *304:30 0.000143151
15 *133:12 *304:30 8.08012e-05
16 *226:36 *304:30 0.000553459
17 *231:28 *304:30 0.000571594
18 *233:34 *304:30 6.64392e-05
19 *257:38 *304:30 4.99894e-05
20 *265:68 *304:30 4.11877e-05
21 *266:28 *304:30 7.40684e-06
22 *277:34 *304:30 0.000291677
23 *299:90 *304:30 0.000507268
*RES
1 *690:Q *304:30 46.2576 
2 *304:30 *466:A2 9.24915 
*END

*D_NET *305 0.0162163
*CONN
*I *458:A2 I *D sky130_fd_sc_hd__mux4_2
*I *689:Q O *D sky130_fd_sc_hd__edfxtp_1
*CAP
1 *458:A2 0
2 *689:Q 0.00466775
3 *305:32 0.00466775
4 *305:32 *379:A 1.50596e-05
5 *305:32 *313:52 0.000415472
6 *305:32 *328:32 0.00048982
7 *305:32 *332:32 3.09777e-06
8 *305:32 *340:50 0.000681613
9 *305:32 *351:127 0.000951823
10 *305:32 *356:16 0.000217952
11 *438:A3 *305:32 2.34172e-05
12 *458:A0 *305:32 0.00210254
13 *465:A3 *305:32 0.000177048
14 *485:B1_N *305:32 5.48872e-05
15 *492:A2 *305:32 4.23622e-05
16 *505:A2 *305:32 8.13812e-06
17 *648:DE *305:32 0
18 *13:35 *305:32 0.000126551
19 *44:30 *305:32 6.16936e-06
20 *96:34 *305:32 9.14965e-05
21 *166:57 *305:32 0
22 *179:26 *305:32 5.26687e-05
23 *181:10 *305:32 0
24 *227:18 *305:32 0.00016863
25 *253:58 *305:32 0.000547242
26 *281:32 *305:32 1.0174e-06
27 *301:30 *305:32 0.000703798
*RES
1 *689:Q *305:32 47.7988 
2 *305:32 *458:A2 9.24915 
*END

*D_NET *306 0.0111578
*CONN
*I *449:A2 I *D sky130_fd_sc_hd__mux4_2
*I *688:Q O *D sky130_fd_sc_hd__edfxtp_1
*CAP
1 *449:A2 0.00068688
2 *688:Q 0.00233836
3 *306:28 0.00302524
4 *449:A2 *587:CLK 0.00016763
5 *449:A2 *350:454 0.000506298
6 *306:28 *351:127 6.11836e-05
7 *306:28 *351:131 1.52673e-05
8 *393:A2 *306:28 0.00118422
9 *529:A *306:28 6.14165e-05
10 *587:DE *449:A2 8.53392e-05
11 *688:DE *306:28 0.000478578
12 *4:26 *306:28 0.000176727
13 *11:60 *306:28 0.000226438
14 *13:62 *306:28 3.35483e-05
15 *38:16 *306:28 2.19138e-05
16 *71:24 *306:28 6.34419e-05
17 *120:73 *306:28 0.000109465
18 *151:14 *306:28 0.000395225
19 *162:12 *306:28 0.000342626
20 *163:14 *449:A2 6.66012e-05
21 *182:47 *306:28 0.000615377
22 *231:28 *449:A2 1.94236e-05
23 *282:40 *306:28 0.000311674
24 *298:30 *449:A2 0.00016491
*RES
1 *688:Q *306:28 44.1798 
2 *306:28 *449:A2 29.022 
*END

*D_NET *307 0.0140136
*CONN
*I *432:A1 I *D sky130_fd_sc_hd__a221oi_1
*I *687:Q O *D sky130_fd_sc_hd__edfxtp_1
*CAP
1 *432:A1 0.00121019
2 *687:Q 0.00315468
3 *307:32 0.00436487
4 *432:A1 *598:CLK 0.000161243
5 *432:A1 *321:46 0.000227728
6 *307:32 *397:A0 2.84135e-05
7 *307:32 *467:A1 1.69496e-05
8 *307:32 *536:A0 0.00215786
9 *307:32 *312:20 5.60804e-05
10 *307:32 *330:48 8.90497e-05
11 *410:A2 *432:A1 9.69677e-05
12 *436:B1 *432:A1 5.06649e-05
13 *446:A2 *307:32 5.54675e-05
14 *546:A0 *307:32 2.18679e-05
15 *644:DE *432:A1 0.000116254
16 *645:DE *432:A1 9.46208e-05
17 *673:DE *432:A1 0.000102051
18 *19:26 *307:32 6.32168e-05
19 *20:20 *307:32 0.000515418
20 *35:28 *307:32 7.90348e-05
21 *178:12 *307:32 2.12266e-05
22 *217:80 *432:A1 5.0702e-05
23 *238:22 *432:A1 3.75221e-05
24 *239:16 *307:32 0.000817542
25 *261:42 *432:A1 0.000345917
26 *263:34 *307:32 1.5714e-05
27 *288:40 *307:32 6.23101e-05
*RES
1 *687:Q *307:32 49.2861 
2 *307:32 *432:A1 43.3511 
*END

*D_NET *308 0.005401
*CONN
*I *418:A1 I *D sky130_fd_sc_hd__a221oi_1
*I *686:Q O *D sky130_fd_sc_hd__edfxtp_1
*CAP
1 *418:A1 0.000296553
2 *686:Q 0.000965419
3 *308:18 0.00126197
4 *418:A1 *481:A3 9.32662e-05
5 *418:A1 *481:S0 1.26194e-05
6 *418:A1 *350:466 7.82282e-05
7 *418:A1 *350:468 5.12973e-05
8 *418:A1 *350:472 2.9535e-05
9 *308:18 *314:26 0.000276136
10 *308:18 *350:442 7.60356e-05
11 *405:B *308:18 6.72773e-05
12 *452:A3 *418:A1 0.000174134
13 *470:A1 *308:18 4.51953e-05
14 *686:DE *308:18 0.00017995
15 *13:62 *308:18 0.000156509
16 *21:20 *308:18 0.000544783
17 *36:14 *308:18 0.000556393
18 *188:16 *418:A1 2.66445e-07
19 *247:28 *418:A1 6.45333e-05
20 *251:24 *308:18 0.000128324
21 *257:38 *308:18 8.20742e-05
22 *298:30 *308:18 0.000133334
23 *299:60 *308:18 0.000127164
24 *299:90 *308:18 0
*RES
1 *686:Q *308:18 42.2269 
2 *308:18 *418:A1 22.0175 
*END

*D_NET *309 0.0127003
*CONN
*I *406:A1 I *D sky130_fd_sc_hd__a221oi_1
*I *685:Q O *D sky130_fd_sc_hd__edfxtp_1
*CAP
1 *406:A1 0
2 *685:Q 0.00295735
3 *309:32 0.00295735
4 *309:32 *657:CLK 1.41382e-06
5 *309:32 *663:CLK 4.96104e-05
6 *309:32 *1200:A 0.00024624
7 *309:32 *317:22 3.1037e-06
8 *309:32 *324:22 6.10711e-05
9 *309:32 *332:32 0.000162644
10 *309:32 *337:26 0.000331586
11 *309:32 *351:109 0.000105229
12 *539:A1 *309:32 0.0001154
13 *544:A1 *309:32 4.93499e-05
14 *612:D *309:32 3.54768e-05
15 *10:47 *309:32 0.000447733
16 *13:23 *309:32 0.00259471
17 *13:96 *309:32 0.00152188
18 *78:26 *309:32 0.000490038
19 *96:22 *309:32 2.9678e-05
20 *114:55 *309:32 0.000199632
21 *130:52 *309:32 7.0222e-05
22 *139:16 *309:32 7.94598e-05
23 *156:77 *309:32 0
24 *158:39 *309:32 9.42362e-06
25 *160:142 *309:32 1.66626e-05
26 *275:36 *309:32 7.08723e-06
27 *283:32 *309:32 0.000140062
28 *301:30 *309:32 1.79018e-05
*RES
1 *685:Q *309:32 40.8523 
2 *309:32 *406:A1 9.24915 
*END

*D_NET *310 0.017666
*CONN
*I *547:A1 I *D sky130_fd_sc_hd__a221oi_1
*I *679:Q O *D sky130_fd_sc_hd__edfxtp_1
*CAP
1 *547:A1 0.000545887
2 *679:Q 0.00364426
3 *310:36 0.00419015
4 *547:A1 *350:334 0.000358407
5 *310:36 *434:S 0.000384922
6 *310:36 *460:S1 2.69816e-05
7 *310:36 *311:28 0.00157601
8 *408:A2 *547:A1 0.000193971
9 *541:B1 *547:A1 6.08467e-05
10 *578:DE *310:36 3.82123e-05
11 *649:DE *310:36 8.6989e-05
12 *11:44 *310:36 5.91638e-05
13 *31:28 *310:36 5.11466e-05
14 *31:46 *310:36 5.39404e-06
15 *80:93 *310:36 0.000211779
16 *80:110 *310:36 0.000109708
17 *87:30 *310:36 0
18 *89:12 *547:A1 0.000265558
19 *126:20 *547:A1 0.000332914
20 *126:20 *310:36 7.67398e-05
21 *145:32 *310:36 0.000387556
22 *158:69 *310:36 0.000303958
23 *160:81 *310:36 2.96378e-05
24 *182:152 *310:36 9.56324e-06
25 *188:30 *310:36 3.80079e-05
26 *198:20 *310:36 0.000246634
27 *212:56 *310:36 1.13341e-06
28 *226:36 *310:36 0.00305355
29 *302:24 *310:36 0.00137693
*RES
1 *679:Q *310:36 49.2048 
2 *310:36 *547:A1 33.819 
*END

*D_NET *311 0.0140116
*CONN
*I *481:A3 I *D sky130_fd_sc_hd__mux4_2
*I *698:Q O *D sky130_fd_sc_hd__edfxtp_1
*CAP
1 *481:A3 0.00110815
2 *698:Q 0.00231201
3 *311:28 0.00342016
4 *481:A3 *449:S0 3.2564e-05
5 *481:A3 *481:S1 6.64392e-05
6 *481:A3 *655:CLK 5.14358e-05
7 *481:A3 *690:CLK 1.50753e-05
8 *481:A3 *350:545 2.19138e-05
9 *481:A3 *358:20 3.76286e-05
10 *481:A3 *358:77 0.000249984
11 *311:28 *675:CLK 4.28856e-07
12 *311:28 *344:16 9.62967e-05
13 *418:A1 *481:A3 9.32662e-05
14 *614:D *311:28 0.000108657
15 *649:DE *311:28 0.000348805
16 *690:D *481:A3 2.25583e-07
17 *690:DE *481:A3 0.000207933
18 *695:D *481:A3 4.16137e-05
19 *695:D *311:28 0.00015747
20 *80:93 *311:28 0.00105517
21 *81:124 *311:28 7.98381e-05
22 *118:20 *311:28 5.69424e-05
23 *156:101 *481:A3 1.3706e-05
24 *166:42 *311:28 6.18423e-05
25 *167:86 *311:28 0.000333857
26 *181:63 *311:28 7.88396e-07
27 *183:40 *481:A3 6.3657e-05
28 *188:16 *481:A3 3.93851e-06
29 *188:30 *481:A3 3.25271e-06
30 *226:36 *311:28 0.00144965
31 *254:12 *481:A3 0.000666084
32 *260:26 *481:A3 1.94916e-05
33 *268:52 *481:A3 0.000128699
34 *268:52 *311:28 1.36139e-05
35 *298:30 *481:A3 0.000115045
36 *310:36 *311:28 0.00157601
*RES
1 *698:Q *311:28 42.0994 
2 *311:28 *481:A3 44.2974 
*END

*D_NET *312 0.00694383
*CONN
*I *466:A3 I *D sky130_fd_sc_hd__mux4_2
*I *697:Q O *D sky130_fd_sc_hd__edfxtp_1
*CAP
1 *466:A3 0
2 *697:Q 0.0013737
3 *312:20 0.0013737
4 *312:20 *536:A0 0.00132307
5 *312:20 *336:58 0.000128702
6 *35:28 *312:20 0.000715177
7 *48:10 *312:20 0.00088008
8 *70:30 *312:20 8.13122e-05
9 *110:40 *312:20 4.96741e-05
10 *200:10 *312:20 0
11 *288:40 *312:20 9.54708e-05
12 *295:22 *312:20 0.000866854
13 *307:32 *312:20 5.60804e-05
*RES
1 *697:Q *312:20 47.5298 
2 *312:20 *466:A3 13.7491 
*END

*D_NET *313 0.0215172
*CONN
*I *458:A3 I *D sky130_fd_sc_hd__mux4_2
*I *696:Q O *D sky130_fd_sc_hd__edfxtp_1
*CAP
1 *458:A3 0
2 *696:Q 0.00118304
3 *313:52 0.00559089
4 *313:20 0.00677393
5 *313:52 *458:S1 0.000998307
6 *313:52 *347:134 3.57289e-05
7 *313:52 *350:157 0.000336708
8 *425:A2 *313:52 0.000132873
9 *458:A0 *313:52 5.60804e-05
10 *546:A0 *313:20 0.000448578
11 *634:DE *313:20 1.68531e-05
12 *645:DE *313:52 1.85963e-05
13 *21:20 *313:52 1.5714e-05
14 *40:26 *313:52 7.59553e-05
15 *44:30 *313:52 3.8653e-05
16 *54:22 *313:52 0.00155372
17 *82:291 *313:52 0.000164855
18 *96:34 *313:52 3.5534e-06
19 *102:26 *313:52 2.21499e-05
20 *144:34 *313:20 5.96686e-05
21 *153:22 *313:52 6.32875e-06
22 *160:120 *313:52 0.000121468
23 *161:162 *313:52 6.06525e-06
24 *167:117 *313:20 2.36743e-05
25 *179:26 *313:52 0.000169632
26 *181:10 *313:52 0
27 *209:32 *313:20 0.000474158
28 *209:32 *313:52 4.15196e-05
29 *217:44 *313:52 0
30 *217:62 *313:52 2.44196e-05
31 *220:64 *313:20 4.28856e-07
32 *225:34 *313:52 0.000651395
33 *236:32 *313:52 3.32404e-05
34 *261:34 *313:52 2.18679e-05
35 *285:34 *313:52 0.000988825
36 *287:24 *313:52 0.000357679
37 *290:22 *313:52 0.000196859
38 *293:42 *313:20 5.04829e-06
39 *295:22 *313:20 0.000453271
40 *305:32 *313:52 0.000415472
*RES
1 *696:Q *313:20 49.081 
2 *313:20 *313:52 49.7522 
3 *313:52 *458:A3 9.24915 
*END

*D_NET *314 0.00288172
*CONN
*I *449:A3 I *D sky130_fd_sc_hd__mux4_2
*I *695:Q O *D sky130_fd_sc_hd__edfxtp_1
*CAP
1 *449:A3 0
2 *695:Q 0.000997131
3 *314:26 0.000997131
4 *314:26 *479:S0 0.000170605
5 *314:26 *350:442 4.35892e-05
6 *314:26 *350:454 6.50727e-05
7 *449:A1 *314:26 1.04624e-05
8 *457:A1 *314:26 0.00017403
9 *470:A1 *314:26 1.66771e-05
10 *182:133 *314:26 1.33419e-05
11 *252:10 *314:26 2.98163e-05
12 *260:26 *314:26 0
13 *298:30 *314:26 3.58044e-05
14 *299:60 *314:26 5.19205e-05
15 *308:18 *314:26 0.000276136
*RES
1 *695:Q *314:26 48.5379 
2 *314:26 *449:A3 9.24915 
*END

*D_NET *317 0.00625552
*CONN
*I *406:B2 I *D sky130_fd_sc_hd__a221oi_1
*I *692:Q O *D sky130_fd_sc_hd__edfxtp_1
*CAP
1 *406:B2 0
2 *692:Q 0.00228205
3 *317:22 0.00228205
4 *317:22 *700:CLK 0.000209407
5 *317:22 *1200:A 1.98791e-05
6 *317:22 *328:32 0.000244159
7 *317:22 *337:26 7.12632e-06
8 *317:22 *347:51 0
9 *406:C1 *317:22 3.9154e-05
10 *428:A1 *317:22 5.29279e-05
11 *545:A2 *317:22 6.64732e-05
12 *612:D *317:22 0
13 *659:DE *317:22 1.53006e-05
14 *22:32 *317:22 6.67761e-06
15 *80:18 *317:22 7.86589e-05
16 *96:22 *317:22 7.85226e-05
17 *146:26 *317:22 0.000265167
18 *168:28 *317:22 1.5714e-05
19 *219:38 *317:22 3.39779e-05
20 *270:24 *317:22 0.000555175
21 *309:32 *317:22 3.1037e-06
*RES
1 *692:Q *317:22 41.1917 
2 *317:22 *406:B2 9.24915 
*END

*D_NET *318 0.0052462
*CONN
*I *547:B2 I *D sky130_fd_sc_hd__a221oi_1
*I *678:Q O *D sky130_fd_sc_hd__edfxtp_1
*CAP
1 *547:B2 0.00031744
2 *678:Q 0.00127359
3 *318:16 0.00159102
4 *547:B2 *351:542 2.48354e-05
5 *318:16 *437:A1 5.96996e-06
6 *318:16 *437:S 1.24448e-05
7 *318:16 *329:28 0.000150092
8 *318:16 *347:134 0
9 *318:16 *350:297 1.78793e-05
10 *318:16 *366:26 2.16355e-05
11 *431:A0 *318:16 0.00038834
12 *434:A1 *318:16 6.1578e-06
13 *447:A1 *318:16 6.43474e-05
14 *477:B2 *318:16 0.000170334
15 *547:C1 *547:B2 7.56117e-05
16 *20:32 *547:B2 2.63702e-05
17 *49:12 *318:16 0
18 *55:20 *318:16 0.000450319
19 *130:52 *318:16 9.49244e-05
20 *134:8 *547:B2 4.28856e-07
21 *201:18 *318:16 3.91944e-05
22 *218:56 *318:16 1.86391e-05
23 *220:64 *318:16 7.26606e-05
24 *251:60 *318:16 0.000423962
*RES
1 *678:Q *318:16 49.5318 
2 *318:16 *547:B2 23.7169 
*END

*D_NET *319 0.0197213
*CONN
*I *476:A0 I *D sky130_fd_sc_hd__mux2i_1
*I *559:Q O *D sky130_fd_sc_hd__edfxtp_1
*CAP
1 *476:A0 0.00140755
2 *559:Q 0.00233855
3 *319:36 0.0037461
4 *319:36 *452:S0 2.71671e-05
5 *319:36 *327:36 0.000150563
6 *402:A1 *476:A0 4.44916e-06
7 *422:A2 *319:36 2.81147e-06
8 *440:A1 *476:A0 7.37163e-05
9 *441:A1 *319:36 1.5714e-05
10 *469:A2 *319:36 2.73031e-05
11 *537:B2 *476:A0 0.000108915
12 *36:14 *319:36 5.74949e-05
13 *40:26 *319:36 0.00263418
14 *60:42 *476:A0 0.0001673
15 *75:30 *319:36 0.000153427
16 *81:101 *319:36 0
17 *82:268 *319:36 1.12271e-05
18 *82:291 *319:36 6.85251e-05
19 *93:30 *476:A0 1.14957e-05
20 *93:30 *319:36 0.00227661
21 *94:26 *476:A0 0.00232135
22 *94:26 *319:36 9.72857e-06
23 *102:26 *319:36 0
24 *143:14 *476:A0 0.000350587
25 *148:28 *319:36 0.00015927
26 *156:77 *319:36 0.000494387
27 *158:39 *476:A0 9.73171e-05
28 *167:117 *319:36 5.30363e-05
29 *182:14 *319:36 0.000293941
30 *182:20 *319:36 9.47718e-05
31 *218:32 *476:A0 6.04636e-05
32 *219:38 *476:A0 0.00208361
33 *220:28 *319:36 4.48499e-05
34 *222:38 *476:A0 0
35 *242:18 *319:36 9.15456e-05
36 *247:28 *319:36 5.89784e-05
37 *267:28 *319:36 0.000127047
38 *268:30 *319:36 6.49758e-05
39 *273:30 *476:A0 1.66626e-05
40 *285:34 *476:A0 1.5714e-05
*RES
1 *559:Q *319:36 49.2382 
2 *319:36 *476:A0 35.0111 
*END

*D_NET *320 0.00477933
*CONN
*I *467:A0 I *D sky130_fd_sc_hd__mux4_2
*I *558:Q O *D sky130_fd_sc_hd__edfxtp_1
*CAP
1 *467:A0 0.00137394
2 *558:Q 0.00137394
3 *467:A0 *331:30 0.000216639
4 *467:A0 *334:24 0
5 *467:A0 *350:206 2.77564e-05
6 *467:A0 *350:230 6.3657e-05
7 *467:A0 *368:29 8.64478e-05
8 *410:A1 *467:A0 0.000202101
9 *450:A2 *467:A0 0.000574954
10 *468:A2 *467:A0 0.000122425
11 *558:D *467:A0 0.000195304
12 *607:D *467:A0 0
13 *20:20 *467:A0 3.56928e-05
14 *60:62 *467:A0 8.34608e-05
15 *172:18 *467:A0 6.9828e-05
16 *218:32 *467:A0 0
17 *228:40 *467:A0 0.000201215
18 *239:16 *467:A0 0.00015197
*RES
1 *558:Q *467:A0 49.5065 
*END

*D_NET *321 0.012379
*CONN
*I *459:A0 I *D sky130_fd_sc_hd__mux4_2
*I *703:Q O *D sky130_fd_sc_hd__edfxtp_1
*CAP
1 *459:A0 0.000109415
2 *703:Q 0.000949568
3 *321:46 0.00187597
4 *321:22 0.00271612
5 *459:A0 *459:A1 0.000160617
6 *321:22 *330:48 0.000113916
7 *321:46 *402:S0 6.12763e-05
8 *321:46 *667:CLK 0
9 *398:B *321:46 1.46059e-05
10 *432:A1 *321:46 0.000227728
11 *632:D *321:46 2.19138e-05
12 *684:DE *321:22 5.04829e-06
13 *11:140 *321:46 0.000385348
14 *13:96 *321:46 2.01262e-05
15 *21:20 *321:22 0.000230038
16 *21:20 *321:46 6.03343e-05
17 *40:26 *321:46 0.00112715
18 *42:22 *321:46 0.000563906
19 *93:30 *321:46 6.03237e-05
20 *130:52 *321:46 2.16786e-05
21 *157:131 *321:46 0.000129002
22 *160:120 *321:46 0.000118237
23 *160:142 *321:46 6.06525e-06
24 *167:117 *321:22 0.000155605
25 *168:84 *321:22 2.8182e-06
26 *217:62 *321:22 0.000430904
27 *217:80 *321:46 0.00046349
28 *234:32 *321:22 7.23997e-05
29 *234:56 *321:46 0.000231479
30 *236:32 *321:46 0.00111345
31 *261:34 *321:22 0.000565417
32 *261:42 *321:22 0.000168717
33 *261:42 *321:46 9.04282e-05
34 *275:36 *321:46 4.97935e-05
35 *294:32 *321:46 5.60804e-05
*RES
1 *703:Q *321:22 48.0117 
2 *321:22 *321:46 47.9793 
3 *321:46 *459:A0 15.5817 
*END

*D_NET *322 0.0118548
*CONN
*I *451:A0 I *D sky130_fd_sc_hd__mux4_2
*I *702:Q O *D sky130_fd_sc_hd__edfxtp_1
*CAP
1 *451:A0 0
2 *702:Q 0.00281331
3 *322:48 0.00281331
4 *322:48 *397:A0 1.54009e-05
5 *322:48 *437:A0 0.000380501
6 *322:48 *437:S 3.63738e-05
7 *322:48 *333:26 0.000112162
8 *322:48 *347:134 3.63738e-05
9 *322:48 *359:12 6.67835e-06
10 *322:48 *359:27 9.82974e-06
11 *322:48 *359:136 0
12 *431:A0 *322:48 0.000347887
13 *449:A0 *322:48 2.9808e-05
14 *12:30 *322:48 0
15 *51:36 *322:48 1.9101e-05
16 *72:30 *322:48 9.4395e-05
17 *81:177 *322:48 8.76387e-05
18 *88:32 *322:48 0.00202013
19 *160:81 *322:48 0.000276978
20 *160:120 *322:48 8.3171e-05
21 *185:26 *322:48 4.42238e-05
22 *209:32 *322:48 7.34519e-05
23 *241:48 *322:48 8.76387e-05
24 *242:18 *322:48 0.000340355
25 *251:60 *322:48 8.21597e-05
26 *274:28 *322:48 0.00108085
27 *294:32 *322:48 0.000963047
*RES
1 *702:Q *322:48 47.5231 
2 *322:48 *451:A0 13.7491 
*END

*D_NET *323 0.0185446
*CONN
*I *437:A0 I *D sky130_fd_sc_hd__mux2i_1
*I *701:Q O *D sky130_fd_sc_hd__edfxtp_1
*CAP
1 *437:A0 0.00296708
2 *701:Q 0.00192558
3 *323:32 0.00489266
4 *437:A0 *437:S 3.27815e-05
5 *437:A0 *451:A1 6.87503e-05
6 *437:A0 *451:S1 0.000138118
7 *437:A0 *327:36 4.35741e-05
8 *437:A0 *366:26 0.000312317
9 *323:32 *574:CLK 1.43041e-05
10 *323:32 *340:50 0.000725466
11 *323:32 *351:109 7.83998e-06
12 *434:A0 *437:A0 8.74868e-07
13 *458:A0 *323:32 5.62194e-06
14 *567:DE *437:A0 2.51612e-05
15 *567:DE *323:32 2.47629e-05
16 *574:DE *323:32 2.90638e-06
17 *55:12 *437:A0 4.31603e-06
18 *88:32 *437:A0 0.0011059
19 *110:24 *437:A0 6.23077e-05
20 *130:52 *437:A0 0.00248071
21 *130:52 *323:32 0.000161887
22 *156:77 *437:A0 3.88213e-05
23 *157:131 *437:A0 0.000652929
24 *157:131 *323:32 0.00152035
25 *165:10 *437:A0 0.000221571
26 *167:167 *323:32 2.55448e-05
27 *182:90 *323:32 0.000283807
28 *201:18 *437:A0 3.80874e-05
29 *235:24 *323:32 3.21004e-06
30 *255:32 *437:A0 1.42478e-05
31 *272:18 *323:32 0.000199662
32 *289:20 *323:32 3.77568e-05
33 *292:24 *323:32 0.000125187
34 *322:48 *437:A0 0.000380501
*RES
1 *701:Q *323:32 48.9203 
2 *323:32 *437:A0 44.7766 
*END

*D_NET *324 0.00672762
*CONN
*I *423:A0 I *D sky130_fd_sc_hd__mux2i_1
*I *700:Q O *D sky130_fd_sc_hd__edfxtp_1
*CAP
1 *423:A0 0.000161865
2 *700:Q 0.00202307
3 *324:22 0.00218493
4 *423:A0 *404:S 3.59653e-06
5 *423:A0 *1173:A 0.000127534
6 *324:22 *553:A 4.4204e-05
7 *324:22 *337:26 9.15281e-05
8 *324:22 *351:109 3.90337e-05
9 *646:DE *324:22 4.15661e-05
10 *10:47 *324:22 0.000113987
11 *11:38 *423:A0 1.5714e-05
12 *41:16 *423:A0 1.17366e-05
13 *76:16 *423:A0 2.1203e-06
14 *115:35 *324:22 0
15 *119:24 *324:22 0.00031379
16 *130:52 *324:22 0.00128352
17 *167:167 *324:22 0
18 *168:26 *324:22 9.41239e-05
19 *272:40 *324:22 4.65615e-06
20 *297:46 *423:A0 1.28732e-05
21 *301:30 *423:A0 9.66954e-05
22 *309:32 *324:22 6.10711e-05
*RES
1 *700:Q *324:22 48.9638 
2 *324:22 *423:A0 22.3531 
*END

*D_NET *325 0.0161533
*CONN
*I *397:A0 I *D sky130_fd_sc_hd__mux2i_1
*I *699:Q O *D sky130_fd_sc_hd__edfxtp_1
*CAP
1 *397:A0 0.00331904
2 *699:Q 0.000664936
3 *325:20 0.00398397
4 *397:A0 *437:A1 0.000406879
5 *397:A0 *536:A0 0.00180144
6 *325:20 *585:CLK 8.61698e-05
7 *449:A0 *397:A0 3.70199e-06
8 *460:A3 *397:A0 1.22606e-05
9 *586:DE *397:A0 0.000494204
10 *596:DE *325:20 0.000134782
11 *695:D *397:A0 3.21238e-05
12 *31:46 *397:A0 8.96553e-05
13 *31:46 *325:20 6.38934e-05
14 *72:30 *397:A0 0.000463878
15 *80:137 *397:A0 2.89423e-05
16 *81:124 *397:A0 0.000173407
17 *87:30 *397:A0 5.32221e-05
18 *156:101 *325:20 3.08021e-05
19 *162:35 *325:20 0.000170504
20 *182:197 *397:A0 2.9535e-05
21 *208:32 *397:A0 0.000325713
22 *210:20 *325:20 0.00087032
23 *211:24 *397:A0 0.000406879
24 *234:56 *397:A0 7.71503e-05
25 *236:32 *325:20 1.5714e-05
26 *241:48 *397:A0 0.000284385
27 *265:68 *397:A0 0.00174306
28 *274:28 *397:A0 7.91367e-05
29 *288:40 *397:A0 1.70622e-05
30 *299:26 *325:20 1.82679e-05
31 *299:90 *397:A0 0.000228442
32 *307:32 *397:A0 2.84135e-05
33 *322:48 *397:A0 1.54009e-05
*RES
1 *699:Q *325:20 46.8952 
2 *325:20 *397:A0 44.3174 
*END

*D_NET *326 0.0175513
*CONN
*I *536:A0 I *D sky130_fd_sc_hd__mux2i_1
*I *677:Q O *D sky130_fd_sc_hd__edfxtp_1
*CAP
1 *536:A0 0.00276216
2 *677:Q 0.00156238
3 *326:14 0.00432454
4 *536:A0 *451:A1 0.000876035
5 *326:14 *367:12 2.28368e-05
6 *397:A0 *536:A0 0.00180144
7 *402:A1 *326:14 0
8 *410:B1 *326:14 0.000161919
9 *446:A2 *326:14 1.19618e-05
10 *11:140 *326:14 0.000246723
11 *11:150 *326:14 2.52287e-06
12 *35:28 *536:A0 1.60381e-05
13 *53:22 *536:A0 4.39676e-05
14 *63:12 *326:14 0.000559237
15 *70:30 *536:A0 0.000314573
16 *93:30 *536:A0 0.000262776
17 *110:40 *536:A0 2.25583e-07
18 *208:32 *536:A0 0.000191994
19 *237:22 *326:14 3.64611e-05
20 *259:28 *536:A0 1.61372e-05
21 *263:34 *536:A0 3.03797e-05
22 *264:30 *326:14 0.000673465
23 *269:20 *536:A0 2.1203e-06
24 *288:40 *536:A0 8.4649e-05
25 *296:28 *536:A0 4.39732e-05
26 *299:90 *536:A0 2.18904e-05
27 *307:32 *536:A0 0.00215786
28 *312:20 *536:A0 0.00132307
*RES
1 *677:Q *326:14 47.1901 
2 *326:14 *536:A0 48.484 
*END

*D_NET *327 0.0181966
*CONN
*I *476:A1 I *D sky130_fd_sc_hd__mux2i_1
*I *566:Q O *D sky130_fd_sc_hd__edfxtp_1
*CAP
1 *476:A1 0.000846332
2 *566:Q 0.00232811
3 *327:58 0.00201272
4 *327:36 0.0034945
5 *476:A1 *328:52 0.000175766
6 *476:A1 *350:172 1.28852e-05
7 *327:36 *632:CLK 3.55968e-05
8 *327:36 *340:50 0.000110297
9 *327:36 *350:545 3.09131e-05
10 *327:58 *581:CLK 0.000178256
11 *327:58 *328:52 6.45795e-05
12 *327:58 *331:30 5.65354e-05
13 *327:58 *340:50 4.53208e-05
14 *327:58 *368:107 0.000161252
15 *410:A2 *476:A1 1.30666e-05
16 *417:A1 *327:58 1.41307e-05
17 *425:A2 *476:A1 0.000111708
18 *437:A0 *327:36 4.35741e-05
19 *440:A1 *476:A1 0.00063805
20 *539:A1 *327:58 7.07342e-06
21 *559:DE *327:36 0
22 *581:DE *327:58 2.20583e-05
23 *582:DE *476:A1 0.000189525
24 *582:DE *327:58 6.28634e-05
25 *598:D *476:A1 0.000134294
26 *598:DE *476:A1 3.4944e-05
27 *4:26 *327:36 0.000268572
28 *11:60 *327:36 0.000100854
29 *56:28 *327:36 8.48378e-05
30 *60:42 *327:36 0.000120589
31 *82:291 *327:36 3.17436e-05
32 *93:30 *327:36 0.000334423
33 *94:26 *327:36 0.00272776
34 *148:28 *476:A1 0.000106701
35 *156:58 *327:58 0.00011632
36 *156:77 *327:36 0.000111437
37 *158:39 *476:A1 0
38 *158:39 *327:58 0.00011551
39 *160:142 *327:36 4.78069e-06
40 *160:142 *327:58 6.98337e-06
41 *162:93 *327:58 0
42 *162:107 *327:58 0
43 *169:71 *327:58 0.000248833
44 *210:20 *327:36 9.91931e-05
45 *211:24 *327:58 1.16353e-05
46 *212:46 *327:58 0.00010246
47 *217:80 *476:A1 0
48 *222:38 *476:A1 0.000111708
49 *225:34 *476:A1 6.42339e-05
50 *238:22 *476:A1 2.61038e-05
51 *238:22 *327:58 0.000176885
52 *261:34 *327:36 0.00167959
53 *268:30 *327:36 0.00046547
54 *289:20 *327:58 1.41181e-05
55 *293:56 *327:58 8.58503e-05
56 *300:22 *476:A1 5.11322e-06
57 *319:36 *327:36 0.000150563
*RES
1 *566:Q *327:36 47.5722 
2 *327:36 *327:58 48.5303 
3 *327:58 *476:A1 42.9523 
*END

*D_NET *328 0.0164694
*CONN
*I *467:A1 I *D sky130_fd_sc_hd__mux4_2
*I *565:Q O *D sky130_fd_sc_hd__edfxtp_1
*CAP
1 *467:A1 0.00152023
2 *565:Q 0.00245229
3 *328:52 0.00271778
4 *328:32 0.00364985
5 *467:A1 *467:S0 3.56986e-05
6 *467:A1 *467:S1 6.08467e-05
7 *467:A1 *350:208 0.000158451
8 *328:32 *553:A 3.20707e-05
9 *328:32 *1204:A 0.000471045
10 *328:32 *347:51 6.68644e-06
11 *328:32 *362:58 7.47581e-05
12 *328:32 *362:60 0.000325914
13 *328:32 *362:62 0.000224166
14 *328:52 *558:CLK 1.57779e-05
15 *417:A1 *328:52 0.000123703
16 *457:A2 *328:32 0.000436144
17 *468:A2 *467:A1 0.000175588
18 *476:A1 *328:52 0.000175766
19 *582:DE *328:52 0.000110306
20 *598:DE *467:A1 1.87271e-05
21 *598:DE *328:52 3.51243e-05
22 *638:D *328:52 6.11074e-05
23 *676:DE *328:32 0.000142198
24 *676:DE *328:52 0
25 *6:69 *328:32 2.74259e-05
26 *13:23 *328:32 5.88522e-06
27 *19:26 *467:A1 0.000102255
28 *20:20 *467:A1 1.25799e-05
29 *77:14 *328:32 0.00024135
30 *118:20 *328:32 0.000753721
31 *119:24 *328:32 3.80325e-05
32 *146:26 *328:32 0.000131362
33 *157:30 *328:32 0
34 *162:107 *328:52 5.74949e-05
35 *166:127 *328:52 7.24882e-05
36 *168:24 *328:32 0.000280153
37 *170:55 *328:32 0.000784313
38 *181:55 *328:32 6.47955e-05
39 *211:24 *328:52 2.1203e-06
40 *228:40 *328:32 1.34851e-05
41 *236:32 *467:A1 3.75221e-05
42 *300:22 *328:52 4.69495e-06
43 *305:32 *328:32 0.00048982
44 *307:32 *467:A1 1.69496e-05
45 *317:22 *328:32 0.000244159
46 *327:58 *328:52 6.45795e-05
*RES
1 *565:Q *328:32 49.9591 
2 *328:32 *328:52 44.201 
3 *328:52 *467:A1 43.9022 
*END

*D_NET *329 0.0126509
*CONN
*I *459:A1 I *D sky130_fd_sc_hd__mux4_2
*I *564:Q O *D sky130_fd_sc_hd__edfxtp_1
*CAP
1 *459:A1 0.000803539
2 *564:Q 0.000870954
3 *329:32 0.00209181
4 *329:28 0.00215922
5 *329:28 *437:S 4.26619e-06
6 *329:28 *347:134 0.000172408
7 *329:28 *350:297 1.46359e-05
8 *329:32 *451:S0 0.000143175
9 *329:32 *351:420 0.000127384
10 *329:32 *351:422 0.000208695
11 dout[6] *329:32 0
12 *431:A0 *329:28 0.000202105
13 *434:A0 *329:28 7.07415e-06
14 *434:A1 *329:28 9.49949e-05
15 *459:A0 *459:A1 0.000160617
16 *473:A1 *329:32 0.00014688
17 *477:B2 *329:28 0.000298399
18 *552:A2 *459:A1 0.00257382
19 *11:158 *329:32 0.000331778
20 *27:16 *329:32 0
21 *31:58 *329:28 1.40158e-05
22 *58:28 *329:32 0.000122429
23 *70:30 *329:28 0.000170879
24 *136:26 *329:28 0.00019415
25 *137:8 *329:32 0
26 *138:28 *459:A1 0.000287267
27 *172:8 *459:A1 0.000591484
28 *211:24 *329:32 0.000552894
29 *216:46 *329:32 0
30 *220:64 *329:28 2.1203e-06
31 *259:28 *329:32 0.00015378
32 *318:16 *329:28 0.000150092
*RES
1 *564:Q *329:28 45.7933 
2 *329:28 *329:32 44.1199 
3 *329:32 *459:A1 43.8516 
*END

*D_NET *330 0.0180603
*CONN
*I *451:A1 I *D sky130_fd_sc_hd__mux4_2
*I *563:Q O *D sky130_fd_sc_hd__edfxtp_1
*CAP
1 *451:A1 0.00125399
2 *563:Q 0.00234776
3 *330:48 0.00326791
4 *330:12 0.00436168
5 *451:A1 *380:A 5.481e-05
6 *330:12 *616:CLK 5.79057e-05
7 *330:12 *356:87 1.9633e-05
8 *330:12 *356:89 4.94961e-05
9 *330:48 *687:CLK 6.08467e-05
10 *421:B2 *451:A1 6.11961e-06
11 *434:A0 *451:A1 0.000375862
12 *437:A0 *451:A1 6.87503e-05
13 *536:A0 *451:A1 0.000876035
14 *591:D *330:12 9.12033e-06
15 *621:D *330:48 0.000202499
16 *687:DE *330:48 3.33876e-05
17 *21:20 *330:48 0.000106599
18 *31:58 *330:48 3.88213e-05
19 *35:28 *451:A1 3.8017e-05
20 *72:30 *330:48 0.00109072
21 *155:68 *330:12 2.90593e-05
22 *158:53 *330:48 5.5041e-05
23 *162:79 *330:12 1.65117e-05
24 *163:58 *330:48 0
25 *165:10 *451:A1 1.84664e-05
26 *167:117 *330:48 0.000254189
27 *168:38 *330:12 0.000849248
28 *168:63 *330:12 0.000171545
29 *200:10 *451:A1 0.000385824
30 *241:16 *330:12 0.000170355
31 *255:32 *451:A1 0.000359655
32 *259:28 *451:A1 3.30795e-05
33 *268:52 *330:48 0.000226438
34 *287:24 *330:48 7.34365e-05
35 *288:40 *330:48 3.46393e-06
36 *296:28 *451:A1 0.000248499
37 *299:90 *451:A1 0.000602734
38 *304:30 *451:A1 3.98378e-05
39 *307:32 *330:48 8.90497e-05
40 *321:22 *330:48 0.000113916
*RES
1 *563:Q *330:12 49.9113 
2 *330:12 *330:48 48.8942 
3 *330:48 *451:A1 41.1478 
*END

*D_NET *331 0.0164276
*CONN
*I *437:A1 I *D sky130_fd_sc_hd__mux2i_1
*I *562:Q O *D sky130_fd_sc_hd__edfxtp_1
*CAP
1 *437:A1 0.00268792
2 *562:Q 0.00227411
3 *331:30 0.00496203
4 *437:A1 *437:S 3.4252e-05
5 *397:A0 *437:A1 0.000406879
6 *401:C1 *437:A1 3.50342e-05
7 *467:A0 *331:30 0.000216639
8 *478:A2 *437:A1 9.72565e-05
9 *478:B1 *437:A1 0.000178666
10 *545:A2 *437:A1 0.000126227
11 *581:DE *331:30 2.85048e-06
12 *594:DE *331:30 1.17085e-05
13 *13:128 *437:A1 5.51377e-06
14 *49:12 *437:A1 0.000191096
15 *54:22 *331:30 1.2653e-05
16 *55:12 *437:A1 6.51628e-05
17 *55:20 *437:A1 2.1203e-06
18 *69:26 *437:A1 0.000106353
19 *77:14 *331:30 3.55579e-05
20 *88:32 *437:A1 1.92982e-05
21 *162:93 *331:30 3.24705e-06
22 *162:107 *331:30 7.51028e-05
23 *168:131 *331:30 2.27622e-05
24 *169:71 *331:30 8.82817e-05
25 *182:189 *437:A1 0.000131722
26 *201:18 *437:A1 3.121e-06
27 *211:24 *437:A1 0.000574771
28 *211:24 *331:30 3.97295e-05
29 *228:40 *437:A1 0.0025903
30 *228:40 *331:30 1.88266e-05
31 *239:16 *331:30 0.000329992
32 *247:28 *331:30 0.000215939
33 *259:28 *437:A1 5.60804e-05
34 *265:30 *331:30 0.000743869
35 *318:16 *437:A1 5.96996e-06
36 *327:58 *331:30 5.65354e-05
*RES
1 *562:Q *331:30 46.6813 
2 *331:30 *437:A1 44.4173 
*END

*D_NET *332 0.00826454
*CONN
*I *423:A1 I *D sky130_fd_sc_hd__mux2i_1
*I *561:Q O *D sky130_fd_sc_hd__edfxtp_1
*CAP
1 *423:A1 0
2 *561:Q 0.00255757
3 *332:32 0.00255757
4 *332:32 *379:A 6.68174e-05
5 *332:32 *630:CLK 9.83674e-06
6 *332:32 *643:CLK 5.49916e-05
7 *332:32 *1173:A 3.90402e-05
8 *332:32 *336:113 0.000189358
9 *332:32 *336:159 0
10 *461:A0 *332:32 1.49713e-05
11 *539:A0 *332:32 0.000129601
12 *561:DE *332:32 1.75951e-05
13 *2:14 *332:32 9.1402e-05
14 *11:38 *332:32 2.23357e-05
15 *13:35 *332:32 0.00143514
16 *82:193 *332:32 6.52144e-05
17 *82:212 *332:32 1.42335e-05
18 *130:52 *332:32 2.46979e-05
19 *155:44 *332:32 8.09106e-06
20 *167:117 *332:32 5.79411e-05
21 *281:32 *332:32 0.00043877
22 *297:46 *332:32 6.85778e-05
23 *298:30 *332:32 0.000235045
24 *305:32 *332:32 3.09777e-06
25 *309:32 *332:32 0.000162644
*RES
1 *561:Q *332:32 49.9611 
2 *332:32 *423:A1 9.24915 
*END

*D_NET *333 0.00372885
*CONN
*I *397:A1 I *D sky130_fd_sc_hd__mux2i_1
*I *560:Q O *D sky130_fd_sc_hd__edfxtp_1
*CAP
1 *397:A1 0
2 *560:Q 0.00102351
3 *333:26 0.00102351
4 *333:26 *609:CLK 2.01098e-05
5 *333:26 *625:CLK 0.000395918
6 *333:26 *334:54 0.000141813
7 *333:26 *351:403 0.000110297
8 *333:26 *366:51 2.28104e-05
9 *333:26 *366:110 0.000198721
10 *431:A0 *333:26 3.86104e-05
11 *435:B2 *333:26 3.82228e-05
12 *605:D *333:26 0.000174348
13 *609:D *333:26 4.34167e-05
14 *51:36 *333:26 0.000112013
15 *51:38 *333:26 6.60191e-06
16 *182:197 *333:26 9.52748e-06
17 *218:56 *333:26 3.68883e-05
18 *251:60 *333:26 1.26334e-05
19 *263:22 *333:26 0.000207732
20 *263:34 *333:26 0
21 *291:26 *333:26 0
22 *322:48 *333:26 0.000112162
*RES
1 *560:Q *333:26 47.6758 
2 *333:26 *397:A1 9.24915 
*END

*D_NET *334 0.0146631
*CONN
*I *536:A1 I *D sky130_fd_sc_hd__mux2i_1
*I *676:Q O *D sky130_fd_sc_hd__edfxtp_1
*CAP
1 *536:A1 0
2 *676:Q 0.00137232
3 *334:54 0.00265044
4 *334:24 0.00402277
5 *334:24 *640:CLK 3.47376e-05
6 *334:24 *368:107 3.50623e-05
7 *334:54 *580:CLK 5.89035e-05
8 *334:54 *640:CLK 6.23028e-05
9 *407:A0 *334:54 1.4379e-05
10 *450:A2 *334:24 3.52127e-05
11 *467:A0 *334:24 0
12 *468:A2 *334:24 0
13 *547:C1 *334:54 2.00709e-05
14 *558:D *334:24 0.000282949
15 *580:DE *334:54 1.99092e-05
16 *582:DE *334:24 2.95031e-05
17 *607:D *334:24 2.85239e-05
18 *13:111 *334:54 0.000936781
19 *35:28 *334:54 7.23569e-05
20 *55:20 *334:54 8.56006e-05
21 *58:28 *334:54 0.00119331
22 *69:26 *334:24 0.000162183
23 *70:30 *334:54 0.000422015
24 *125:28 *334:54 1.05803e-05
25 *130:52 *334:54 0.00064022
26 *182:171 *334:54 1.64979e-05
27 *182:189 *334:54 0.000145553
28 *215:40 *334:54 0.000104209
29 *217:80 *334:24 8.43815e-05
30 *220:64 *334:54 0.000737187
31 *255:32 *334:54 0.000245151
32 *259:28 *334:54 0.000585385
33 *263:22 *334:54 0.000144628
34 *265:30 *334:24 2.54101e-05
35 *265:68 *334:24 0.00013796
36 *291:26 *334:54 3.75221e-05
37 *300:22 *334:24 6.72353e-05
38 *333:26 *334:54 0.000141813
*RES
1 *676:Q *334:24 49.8765 
2 *334:24 *334:54 46.3911 
3 *334:54 *536:A1 9.24915 
*END

*D_NET *350 0.0721069
*CONN
*I *396:A I *D sky130_fd_sc_hd__xnor2_1
*I *398:A I *D sky130_fd_sc_hd__nor2_1
*I *425:A1 I *D sky130_fd_sc_hd__o21a_1
*I *433:A1 I *D sky130_fd_sc_hd__o21ai_0
*I *478:A1 I *D sky130_fd_sc_hd__o21ai_0
*I *416:A1 I *D sky130_fd_sc_hd__o21ai_0
*I *541:A1 I *D sky130_fd_sc_hd__o21a_1
*I *466:S1 I *D sky130_fd_sc_hd__mux4_2
*I *460:S1 I *D sky130_fd_sc_hd__mux4_2
*I *465:S1 I *D sky130_fd_sc_hd__mux4_2
*I *439:A1 I *D sky130_fd_sc_hd__o21ai_0
*I *475:A1 I *D sky130_fd_sc_hd__o21ai_0
*I *457:S1 I *D sky130_fd_sc_hd__mux4_2
*I *449:S1 I *D sky130_fd_sc_hd__mux4_2
*I *438:A2 I *D sky130_fd_sc_hd__a31oi_1
*I *481:S1 I *D sky130_fd_sc_hd__mux4_2
*I *452:S1 I *D sky130_fd_sc_hd__mux4_2
*I *405:A I *D sky130_fd_sc_hd__nor2_1
*I *548:A1 I *D sky130_fd_sc_hd__o21ai_0
*I *422:A1 I *D sky130_fd_sc_hd__o21a_1
*I *479:S1 I *D sky130_fd_sc_hd__mux4_2
*I *419:A1 I *D sky130_fd_sc_hd__o21ai_0
*I *545:A1 I *D sky130_fd_sc_hd__o21ai_0
*I *451:S1 I *D sky130_fd_sc_hd__mux4_2
*I *407:S1 I *D sky130_fd_sc_hd__mux4_2
*I *443:A1 I *D sky130_fd_sc_hd__o21a_1
*I *450:S1 I *D sky130_fd_sc_hd__mux4_2
*I *467:S1 I *D sky130_fd_sc_hd__mux4_2
*I *402:S1 I *D sky130_fd_sc_hd__mux4_2
*I *468:S1 I *D sky130_fd_sc_hd__mux4_2
*I *459:S1 I *D sky130_fd_sc_hd__mux4_2
*I *458:S1 I *D sky130_fd_sc_hd__mux4_2
*I *376:B I *D sky130_fd_sc_hd__xor2_1
*I *495:B1 I *D sky130_fd_sc_hd__a21oi_1
*I *436:A1 I *D sky130_fd_sc_hd__o21ai_0
*I *400:B I *D sky130_fd_sc_hd__and2_0
*I *399:A I *D sky130_fd_sc_hd__lpflow_isobufsrc_1
*I *538:A1 I *D sky130_fd_sc_hd__o21a_1
*I *1172:X O *D sky130_fd_sc_hd__buf_4
*CAP
1 *396:A 0
2 *398:A 3.11435e-05
3 *425:A1 8.2388e-05
4 *433:A1 0
5 *478:A1 1.30922e-05
6 *416:A1 7.98884e-05
7 *541:A1 4.17153e-05
8 *466:S1 4.59307e-05
9 *460:S1 0.000417704
10 *465:S1 0.000213161
11 *439:A1 0.000106359
12 *475:A1 0
13 *457:S1 7.36564e-05
14 *449:S1 0
15 *438:A2 0.000151215
16 *481:S1 0.000133209
17 *452:S1 0
18 *405:A 0.000195848
19 *548:A1 0
20 *422:A1 0.000198994
21 *479:S1 0
22 *419:A1 6.08376e-05
23 *545:A1 2.3034e-05
24 *451:S1 0.000275174
25 *407:S1 0
26 *443:A1 0
27 *450:S1 0.00019024
28 *467:S1 2.7855e-05
29 *402:S1 0
30 *468:S1 0
31 *459:S1 0
32 *458:S1 0.00030986
33 *376:B 0
34 *495:B1 0
35 *436:A1 0
36 *400:B 1.47608e-05
37 *399:A 0
38 *538:A1 0.000975154
39 *1172:X 0.000162271
40 *350:661 0.000330157
41 *350:545 0.00140677
42 *350:472 0.000426296
43 *350:468 0.000515291
44 *350:466 0.000209335
45 *350:460 0.000658132
46 *350:454 0.00195986
47 *350:442 0.0010623
48 *350:414 0.00119901
49 *350:408 0.000784104
50 *350:389 0.00107491
51 *350:373 0.00118214
52 *350:355 0.000866406
53 *350:353 0.000802265
54 *350:351 0.000843514
55 *350:334 0.00100893
56 *350:328 0.000802348
57 *350:310 0.000847047
58 *350:297 0.000964958
59 *350:285 0.000858616
60 *350:266 0.000755783
61 *350:255 0.000567365
62 *350:240 0.000476061
63 *350:230 0.000357801
64 *350:208 0.000328642
65 *350:206 0.00105892
66 *350:191 0.0014179
67 *350:181 0.000970069
68 *350:172 0.00029811
69 *350:157 0.000833775
70 *350:134 0.00138049
71 *350:117 0.000534534
72 *350:106 0.000371865
73 *350:91 0.000686914
74 *350:68 0.000595657
75 *350:57 0.00204436
76 *350:14 0.00296492
77 *350:10 0.000275838
78 *400:B *417:S 6.08467e-05
79 *451:S1 *451:S0 0.000304254
80 *451:S1 *351:422 1.94614e-05
81 *457:S1 *479:S0 2.43857e-05
82 *538:A1 *568:CLK 0
83 *538:A1 *1200:A 1.1573e-05
84 *538:A1 *361:30 0
85 *538:A1 *361:32 0
86 *538:A1 *361:36 0
87 *350:57 *399:SLEEP 0.000107496
88 *350:57 *1204:A 0.000136773
89 *350:57 *362:18 7.86825e-06
90 *350:68 *399:SLEEP 4.94594e-05
91 *350:91 *351:67 1.4091e-06
92 *350:106 *495:A1 1.03594e-05
93 *350:106 *364:61 0
94 *350:117 *495:A1 6.3657e-05
95 *350:134 *677:CLK 5.04829e-06
96 *350:134 *367:12 3.01683e-06
97 *350:172 *476:S 2.77419e-05
98 *350:266 *407:S0 1.91114e-05
99 *350:266 *351:420 5.30254e-05
100 *350:266 *351:422 0.000192575
101 *350:297 *437:S 6.02095e-05
102 *350:310 *351:528 2.60879e-06
103 *350:328 *351:528 2.2816e-05
104 *350:389 *1196:A 0.000114594
105 *350:442 *457:S0 7.41811e-05
106 *350:454 *449:S0 4.97961e-06
107 *350:545 *357:67 0.000335042
108 *350:545 *357:80 2.08323e-05
109 dout[3] *350:328 0
110 dout[3] *350:351 0.001082
111 *376:A *350:117 0.000293901
112 *376:A *350:134 4.29906e-05
113 *380:A *350:297 0.000165455
114 *383:A2 *538:A1 1.41976e-05
115 *393:A2 *350:373 0.000498142
116 *393:A2 *350:545 0.000274166
117 *396:B *350:10 0.000245341
118 *398:B *350:191 0.000361676
119 *398:B *350:661 0.000337905
120 *402:A3 *350:191 0.000435199
121 *405:B *405:A 2.60141e-05
122 *405:B *350:442 8.60109e-05
123 *407:A0 *350:266 0.000403073
124 *407:A1 *350:266 6.3657e-05
125 *408:A2 *350:328 2.52155e-05
126 *408:A2 *350:334 1.8706e-05
127 *410:A1 *450:S1 6.50727e-05
128 *416:A2 *350:328 2.9205e-05
129 *417:A0 *400:B 6.08467e-05
130 *417:A0 *350:91 3.82228e-05
131 *418:A1 *350:466 7.82282e-05
132 *418:A1 *350:468 5.12973e-05
133 *418:A1 *350:472 2.9535e-05
134 *420:A1 *438:A2 0.000156955
135 *421:B2 *350:351 6.42076e-05
136 *421:B2 *350:408 9.77584e-05
137 *422:A2 *422:A1 0
138 *427:A1 *416:A1 9.95542e-06
139 *427:A2 *416:A1 6.50586e-05
140 *433:A2 *350:240 2.29386e-05
141 *434:A0 *451:S1 6.43715e-06
142 *436:B1 *350:106 3.01683e-06
143 *437:A0 *451:S1 0.000138118
144 *439:B1 *439:A1 0
145 *449:A2 *350:454 0.000506298
146 *452:A3 *350:460 0
147 *455:A1 *466:S1 2.83167e-05
148 *455:A1 *350:353 0.000364196
149 *455:A1 *350:355 0.000442055
150 *455:A1 *350:373 0.000186553
151 *457:A1 *457:S1 6.64392e-05
152 *457:A2 *350:442 9.61312e-05
153 *458:A1 *350:91 0.000225608
154 *459:A2 *350:157 7.63284e-05
155 *459:A2 *350:172 2.16355e-05
156 *462:A1 *350:328 2.00801e-05
157 *462:A2 *350:328 6.22732e-06
158 *465:A1 *465:S1 0.000254532
159 *465:A3 *350:373 8.12259e-06
160 *466:A0 *466:S1 6.08467e-05
161 *466:A1 *466:S1 7.09666e-06
162 *467:A0 *350:206 2.77564e-05
163 *467:A0 *350:230 6.3657e-05
164 *467:A1 *467:S1 6.08467e-05
165 *467:A1 *350:208 0.000158451
166 *468:A2 *350:172 0.000161234
167 *468:A2 *350:181 0.000233246
168 *468:A3 *350:157 3.024e-05
169 *468:A3 *350:172 0.000111802
170 *470:A1 *405:A 5.49916e-05
171 *475:B1 *350:414 8.08865e-05
172 *476:A1 *350:172 1.28852e-05
173 *478:A2 *478:A1 3.5534e-06
174 *478:A2 *350:297 0
175 *478:B1 *350:297 0
176 *479:A1 *350:389 0.000110306
177 *480:B *350:408 0.000107496
178 *481:A2 *350:460 0.000250405
179 *481:A3 *481:S1 6.64392e-05
180 *481:A3 *350:545 2.19138e-05
181 *494:B *350:57 0
182 *504:B *350:57 0
183 *540:B2 *439:A1 2.41274e-06
184 *540:B2 *350:389 2.65829e-05
185 *545:B1 *350:297 9.27114e-05
186 *545:B1 *350:310 6.11872e-05
187 *547:A1 *350:334 0.000358407
188 *551:A1 *350:310 3.82228e-05
189 *645:D *350:134 0.000107731
190 *645:DE *350:157 0.000377586
191 *1172:A *350:10 0.000110513
192 *3:10 *350:545 4.19401e-06
193 *3:93 *350:414 3.69782e-05
194 *3:93 *350:442 0.000372383
195 *4:26 *350:414 2.18809e-05
196 *5:24 *350:310 0.000253024
197 *11:60 *350:545 1.5714e-05
198 *11:158 *350:266 0.00021698
199 *13:111 *350:285 0.000145496
200 *13:128 *350:285 0.000263803
201 *15:6 *398:A 6.92705e-05
202 *19:26 *350:206 7.76737e-05
203 *20:20 *350:206 7.84597e-06
204 *20:24 *350:230 0.000123802
205 *23:26 *350:414 0.000710598
206 *23:26 *350:442 3.17436e-05
207 *27:16 *350:240 0.00030891
208 *27:16 *350:255 0.000377018
209 *36:14 *350:460 7.69993e-05
210 *36:18 *350:351 5.99155e-05
211 *37:16 *419:A1 2.41274e-06
212 *37:16 *350:334 9.02572e-05
213 *38:16 *350:545 0
214 *39:18 *422:A1 0.000118166
215 *40:26 *422:A1 0
216 *41:16 *350:134 5.29805e-05
217 *42:12 *350:310 0.000338646
218 *42:12 *350:328 8.99254e-05
219 *44:30 *458:S1 0.000322966
220 *44:30 *350:157 1.47846e-05
221 *48:10 *350:389 0.000127931
222 *48:10 *350:408 0.000273363
223 *53:22 *350:240 5.61522e-05
224 *54:22 *350:106 1.15929e-05
225 *56:28 *350:545 0.0002572
226 *57:26 *350:545 1.9101e-05
227 *58:28 *350:373 6.44502e-05
228 *60:62 *350:240 0.00026163
229 *62:8 *350:240 6.90342e-06
230 *62:8 *350:255 2.23124e-05
231 *64:10 *457:S1 8.20742e-05
232 *67:20 *350:408 0
233 *68:38 *350:442 1.02986e-05
234 *69:26 *450:S1 6.08467e-05
235 *75:30 *350:414 0.000462918
236 *75:30 *350:442 0.000219497
237 *76:16 *350:106 0
238 *77:14 *350:191 0.000358149
239 *77:14 *350:661 0.000160024
240 *80:39 *350:57 0.000150256
241 *87:30 *460:S1 9.44875e-05
242 *87:30 *350:353 9.7807e-05
243 *87:30 *350:355 0.000149293
244 *89:12 *350:328 1.66771e-05
245 *89:12 *350:334 0.00041564
246 *91:16 *350:373 0.000138059
247 *101:14 *350:117 3.9132e-05
248 *101:14 *350:134 6.08467e-05
249 *104:14 *538:A1 0.000112227
250 *109:24 *538:A1 0.00054962
251 *110:40 *350:373 1.91246e-05
252 *123:32 *538:A1 0.000104374
253 *125:28 *350:328 3.17436e-05
254 *130:52 *538:A1 1.1573e-05
255 *130:52 *350:285 1.60578e-06
256 *130:52 *350:297 9.59795e-05
257 *131:38 *350:310 0.000162739
258 *131:38 *350:389 5.56778e-05
259 *133:12 *350:408 0.000103724
260 *134:10 *350:351 2.19138e-05
261 *136:20 *350:373 3.54216e-05
262 *136:20 *350:389 0.000207821
263 *136:26 *451:S1 6.08504e-06
264 *136:26 *350:266 4.20184e-06
265 *136:26 *350:297 0
266 *138:28 *350:661 2.86353e-06
267 *142:12 *350:408 9.64809e-05
268 *142:12 *350:414 0.000123687
269 *145:32 *460:S1 3.6593e-05
270 *148:28 *350:172 0.000169503
271 *153:22 *458:S1 3.1143e-05
272 *155:198 *350:134 0.000116887
273 *158:10 *350:157 6.34419e-05
274 *162:12 *350:545 0.000498661
275 *163:14 *350:545 0.000217383
276 *165:10 *451:S1 6.77919e-05
277 *165:10 *466:S1 7.72394e-06
278 *165:10 *350:353 0.000112118
279 *165:10 *350:355 0.000122091
280 *165:10 *350:373 2.19131e-05
281 *170:133 *350:545 9.67553e-06
282 *172:18 *350:206 0.000197873
283 *177:10 *450:S1 0.00031269
284 *182:14 *405:A 0.000482931
285 *182:90 *350:68 0.000308598
286 *182:90 *350:91 6.58016e-05
287 *182:152 *350:389 1.3044e-05
288 *182:167 *466:S1 6.08467e-05
289 *182:189 *350:328 0.000278461
290 *183:40 *481:S1 3.76166e-05
291 *183:40 *350:460 8.34872e-05
292 *183:40 *350:545 6.27721e-05
293 *186:28 *350:134 3.99086e-06
294 *188:16 *422:A1 3.74313e-05
295 *188:16 *350:466 1.15345e-05
296 *188:16 *350:468 6.70217e-05
297 *188:16 *350:472 0.000112152
298 *198:20 *460:S1 8.05972e-06
299 *209:52 *460:S1 6.08467e-05
300 *211:24 *451:S1 3.55731e-06
301 *215:40 *350:285 4.75973e-05
302 *215:40 *350:297 7.86825e-06
303 *215:40 *350:408 0.000291107
304 *216:12 *460:S1 2.72812e-05
305 *216:46 *350:255 0.000519458
306 *217:44 *350:389 6.71702e-05
307 *217:80 *350:172 7.86898e-05
308 *218:32 *350:106 4.27675e-05
309 *218:32 *350:206 0
310 *218:32 *350:240 6.25994e-05
311 *228:40 *350:57 5.18851e-05
312 *228:40 *350:328 3.17436e-05
313 *231:28 *350:545 1.05601e-05
314 *233:34 *350:389 7.17919e-05
315 *237:22 *350:206 0.000162739
316 *245:20 *350:68 0.000307248
317 *245:20 *350:91 7.7711e-05
318 *245:20 *350:106 0.000343534
319 *247:28 *405:A 0.000175348
320 *247:28 *350:472 0
321 *251:60 *350:255 7.17006e-05
322 *257:38 *350:442 9.94352e-05
323 *262:26 *350:460 6.97621e-06
324 *264:30 *450:S1 0.00031269
325 *264:30 *350:181 6.08467e-05
326 *265:68 *460:S1 1.4403e-05
327 *280:16 *350:91 0.000120408
328 *285:34 *350:157 1.82895e-05
329 *286:18 *538:A1 0.0001549
330 *286:18 *350:57 0.00316661
331 *298:30 *350:454 0.000135622
332 *304:30 *350:414 0.000248204
333 *308:18 *350:442 7.60356e-05
334 *310:36 *460:S1 2.69816e-05
335 *313:52 *458:S1 0.000998307
336 *313:52 *350:157 0.000336708
337 *314:26 *350:442 4.35892e-05
338 *314:26 *350:454 6.50727e-05
339 *318:16 *350:297 1.78793e-05
340 *327:36 *350:545 3.09131e-05
341 *329:28 *350:297 1.46359e-05
342 *343:29 *538:A1 0.000213429
343 *343:29 *350:57 0
344 *344:49 *350:57 4.69495e-06
345 *346:14 *350:57 0.000125342
346 *346:32 *350:57 0.000434891
347 *347:134 *350:297 9.11864e-06
*RES
1 *1172:X *350:10 14.6023 
2 *350:10 *350:14 6.88721 
3 *350:14 *538:A1 47.7472 
4 *350:14 *350:57 29.7072 
5 *350:57 *399:A 9.24915 
6 *350:57 *350:68 11.2079 
7 *350:68 *400:B 14.4725 
8 *350:68 *350:91 23.5966 
9 *350:91 *436:A1 9.24915 
10 *350:91 *350:106 17.1118 
11 *350:106 *495:B1 9.24915 
12 *350:106 *350:117 4.50917 
13 *350:117 *376:B 9.24915 
14 *350:117 *350:134 19.4059 
15 *350:134 *458:S1 20.016 
16 *350:134 *350:157 21.4022 
17 *350:157 *459:S1 9.24915 
18 *350:157 *350:172 15.8795 
19 *350:172 *468:S1 9.24915 
20 *350:172 *350:181 7.44181 
21 *350:181 *350:191 20.9656 
22 *350:191 *402:S1 9.24915 
23 *350:191 *350:206 27.7883 
24 *350:206 *350:208 2.94181 
25 *350:208 *467:S1 9.97254 
26 *350:208 *450:S1 25.3723 
27 *350:206 *350:230 5.16022 
28 *350:230 *350:240 16.1529 
29 *350:240 *443:A1 9.24915 
30 *350:240 *350:255 20.7326 
31 *350:255 *407:S1 9.24915 
32 *350:255 *350:266 14.1914 
33 *350:266 *451:S1 21.6756 
34 *350:266 *350:285 7.32289 
35 *350:285 *350:297 18.3267 
36 *350:297 *545:A1 9.82786 
37 *350:297 *350:310 15.6447 
38 *350:310 *350:328 10.4828 
39 *350:328 *350:334 16.3359 
40 *350:334 *419:A1 10.5271 
41 *350:334 *350:351 14.0264 
42 *350:351 *350:353 6.81502 
43 *350:353 *350:355 8.68366 
44 *350:355 *350:373 16.5079 
45 *350:373 *350:389 26.0822 
46 *350:389 *479:S1 9.24915 
47 *350:389 *350:408 20.3492 
48 *350:408 *350:414 7.0209 
49 *350:414 *350:442 36.8062 
50 *350:442 *350:454 13.9283 
51 *350:454 *350:460 12.3199 
52 *350:460 *350:466 7.06479 
53 *350:466 *350:468 2.87013 
54 *350:468 *350:472 5.67918 
55 *350:472 *422:A1 18.5201 
56 *350:472 *548:A1 13.7491 
57 *350:468 *405:A 22.7729 
58 *350:466 *452:S1 13.7491 
59 *350:460 *481:S1 11.6605 
60 *350:454 *350:545 48.6098 
61 *350:545 *438:A2 11.6364 
62 *350:442 *449:S1 9.24915 
63 *350:414 *457:S1 19.4657 
64 *350:408 *475:A1 13.7491 
65 *350:373 *439:A1 11.6605 
66 *350:355 *465:S1 18.9094 
67 *350:353 *460:S1 24.6379 
68 *350:351 *466:S1 15.2664 
69 *350:328 *541:A1 14.4725 
70 *350:310 *416:A1 15.5817 
71 *350:285 *478:A1 14.1278 
72 *350:230 *433:A1 9.24915 
73 *350:181 *350:661 11.315 
74 *350:661 *425:A1 11.1059 
75 *350:661 *398:A 10.5513 
76 *350:10 *396:A 9.24915 
*END

*D_NET *351 0.05775
*CONN
*I *431:S I *D sky130_fd_sc_hd__mux2i_1
*I *536:S I *D sky130_fd_sc_hd__mux2i_1
*I *466:S0 I *D sky130_fd_sc_hd__mux4_2
*I *460:S0 I *D sky130_fd_sc_hd__mux4_2
*I *437:S I *D sky130_fd_sc_hd__mux2i_1
*I *465:S0 I *D sky130_fd_sc_hd__mux4_2
*I *407:S0 I *D sky130_fd_sc_hd__mux4_2
*I *473:S I *D sky130_fd_sc_hd__mux2i_1
*I *451:S0 I *D sky130_fd_sc_hd__mux4_2
*I *397:S I *D sky130_fd_sc_hd__mux2i_1
*I *479:S0 I *D sky130_fd_sc_hd__mux4_2
*I *476:S I *D sky130_fd_sc_hd__mux2i_1
*I *467:S0 I *D sky130_fd_sc_hd__mux4_2
*I *450:S0 I *D sky130_fd_sc_hd__mux4_2
*I *457:S0 I *D sky130_fd_sc_hd__mux4_2
*I *449:S0 I *D sky130_fd_sc_hd__mux4_2
*I *459:S0 I *D sky130_fd_sc_hd__mux4_2
*I *402:S0 I *D sky130_fd_sc_hd__mux4_2
*I *481:S0 I *D sky130_fd_sc_hd__mux4_2
*I *468:S0 I *D sky130_fd_sc_hd__mux4_2
*I *495:A1 I *D sky130_fd_sc_hd__a21oi_1
*I *539:S I *D sky130_fd_sc_hd__mux2i_1
*I *438:A1 I *D sky130_fd_sc_hd__a31oi_1
*I *452:S0 I *D sky130_fd_sc_hd__mux4_2
*I *499:A1 I *D sky130_fd_sc_hd__a21oi_1
*I *417:S I *D sky130_fd_sc_hd__mux2i_1
*I *400:A I *D sky130_fd_sc_hd__and2_0
*I *458:S0 I *D sky130_fd_sc_hd__mux4_2
*I *498:A1 I *D sky130_fd_sc_hd__o21ai_0
*I *373:B I *D sky130_fd_sc_hd__xor2_1
*I *399:SLEEP I *D sky130_fd_sc_hd__lpflow_isobufsrc_1
*I *1173:X O *D sky130_fd_sc_hd__buf_4
*CAP
1 *431:S 0
2 *536:S 0
3 *466:S0 0.000306457
4 *460:S0 0.000144872
5 *437:S 0.00090494
6 *465:S0 0.000576746
7 *407:S0 2.9817e-05
8 *473:S 4.36938e-05
9 *451:S0 0.000576557
10 *397:S 0
11 *479:S0 0.0010429
12 *476:S 0.000137893
13 *467:S0 6.43311e-05
14 *450:S0 0.000547413
15 *457:S0 0.00114495
16 *449:S0 0.000120081
17 *459:S0 0.000192067
18 *402:S0 0.000794689
19 *481:S0 0.000815172
20 *468:S0 0.0011084
21 *495:A1 0.000228532
22 *539:S 0.000613205
23 *438:A1 9.0247e-05
24 *452:S0 0.000886807
25 *499:A1 0.000109576
26 *417:S 0.000349017
27 *400:A 0
28 *458:S0 0.000779268
29 *498:A1 0
30 *373:B 0
31 *399:SLEEP 9.92357e-05
32 *1173:X 0.000117589
33 *351:542 0.000807185
34 *351:528 0.000990059
35 *351:422 0.000274534
36 *351:420 0.000537796
37 *351:403 0.000753985
38 *351:328 0.000545236
39 *351:259 0.000599474
40 *351:210 0.00155722
41 *351:131 0.00171508
42 *351:127 0.00277744
43 *351:109 0.00313849
44 *351:67 0.000551966
45 *351:46 0.00069006
46 *351:37 0.000873892
47 *351:31 0.00126196
48 *351:12 0.000583964
49 *351:6 0.00100408
50 *417:S *367:22 6.08467e-05
51 *451:S0 *366:26 5.11321e-05
52 *458:S0 *570:CLK 2.08059e-05
53 *465:S0 *1196:A 0
54 *465:S0 *358:10 0
55 *468:S0 *674:CLK 2.16355e-05
56 *495:A1 *364:8 1.07248e-05
57 *495:A1 *364:61 3.82406e-05
58 *539:S *635:CLK 1.98461e-05
59 *539:S *1203:A 6.08467e-05
60 *539:S *365:69 4.31603e-06
61 *539:S *365:75 0.000174109
62 *351:46 *570:CLK 8.13812e-06
63 *351:127 *356:85 9.57192e-05
64 *351:210 *600:CLK 2.69795e-05
65 *351:210 *645:CLK 6.08467e-05
66 *351:210 *364:8 0.000104783
67 *351:210 *364:28 0.00016692
68 *351:403 *625:CLK 1.58571e-05
69 dout[1] *460:S0 0.000189561
70 *379:A *351:127 0.00134379
71 *379:A *351:131 0.00107897
72 *380:A *437:S 5.65582e-05
73 *398:B *402:S0 0.000299085
74 *398:B *459:S0 0.000169618
75 *400:B *417:S 6.08467e-05
76 *402:A3 *402:S0 0.000248815
77 *408:A2 *351:528 3.92851e-05
78 *408:A2 *351:542 6.08467e-05
79 *409:A1 *351:420 6.3657e-05
80 *409:A2 *351:420 0.000156955
81 *410:A1 *351:403 0.000202289
82 *411:A1 *351:528 1.06889e-05
83 *411:B1 *351:528 0.000244235
84 *411:B1 *351:542 0.000134322
85 *411:C1 *351:528 5.22654e-06
86 *417:A0 *417:S 7.89999e-05
87 *417:A0 *351:12 0.000343367
88 *417:A0 *351:31 0.00035002
89 *417:A0 *351:67 7.92757e-06
90 *417:A1 *417:S 7.4935e-05
91 *418:A1 *481:S0 1.26194e-05
92 *421:B2 *466:S0 1.00846e-05
93 *421:C1 *466:S0 0.00011818
94 *422:A2 *452:S0 0.000229975
95 *425:A2 *476:S 2.65667e-05
96 *431:A1 *351:542 1.47251e-05
97 *435:B2 *351:403 1.34424e-05
98 *435:B2 *351:420 8.33606e-05
99 *437:A0 *437:S 3.27815e-05
100 *437:A1 *437:S 3.4252e-05
101 *442:B2 *351:403 3.41459e-05
102 *442:C1 *351:403 4.94594e-05
103 *446:A2 *450:S0 0.000278999
104 *446:A2 *351:328 0.00057513
105 *451:S1 *451:S0 0.000304254
106 *451:S1 *351:422 1.94614e-05
107 *452:A0 *452:S0 0.000210918
108 *452:A3 *481:S0 6.89851e-05
109 *454:A1 *457:S0 1.66771e-05
110 *457:A1 *479:S0 9.34726e-05
111 *457:A2 *457:S0 8.02893e-06
112 *457:S1 *479:S0 2.43857e-05
113 *458:A0 *351:109 0.000110247
114 *458:A0 *351:210 6.7212e-06
115 *458:A1 *495:A1 5.11853e-06
116 *461:A3 *351:109 8.06767e-05
117 *462:A2 *351:542 1.39261e-05
118 *467:A1 *467:S0 3.56986e-05
119 *468:A3 *468:S0 0.000293524
120 *469:A0 *452:S0 0.00171128
121 *469:A0 *499:A1 9.42604e-05
122 *470:A1 *457:S0 0
123 *480:B *465:S0 4.03621e-05
124 *481:A1 *457:S0 0.000107845
125 *481:A3 *449:S0 3.2564e-05
126 *483:A1 *479:S0 5.48401e-05
127 *486:A1 *465:S0 5.04829e-06
128 *499:B1 *499:A1 1.41976e-05
129 *537:B2 *468:S0 3.98869e-05
130 *539:A0 *539:S 6.08467e-05
131 *547:B2 *351:542 2.48354e-05
132 *653:DE *351:37 8.8679e-05
133 *654:DE *351:46 7.58398e-05
134 *676:DE *351:12 0.00021528
135 *676:DE *351:31 0.000127594
136 *1173:A *351:6 7.67019e-05
137 *1173:A *351:109 1.47978e-05
138 *2:14 *351:127 8.12564e-05
139 *5:24 *351:528 1.55124e-05
140 *6:87 *458:S0 0
141 *6:87 *351:46 1.23804e-05
142 *11:38 *539:S 0.000196268
143 *11:140 *402:S0 0.000163366
144 *11:140 *459:S0 0.000160493
145 *11:158 *351:420 2.93688e-05
146 *12:26 *457:S0 4.6634e-05
147 *13:62 *457:S0 2.3407e-05
148 *20:20 *467:S0 3.56986e-05
149 *20:32 *351:542 3.86795e-05
150 *23:16 *450:S0 1.21461e-06
151 *23:26 *479:S0 0.000112195
152 *27:16 *351:420 2.58361e-05
153 *35:28 *417:S 1.97124e-05
154 *36:14 *452:S0 0
155 *36:14 *481:S0 0.000184079
156 *39:8 *466:S0 2.81046e-05
157 *42:22 *476:S 3.08014e-05
158 *55:12 *437:S 7.7434e-05
159 *55:20 *466:S0 3.92025e-05
160 *64:10 *450:S0 0.000275402
161 *64:10 *479:S0 4.0605e-06
162 *64:10 *351:328 0.000573895
163 *68:38 *457:S0 1.79223e-05
164 *69:26 *450:S0 0.000107496
165 *76:16 *495:A1 7.58067e-06
166 *80:39 *351:37 7.81382e-05
167 *80:58 *458:S0 0.00074701
168 *80:58 *351:37 0.000183275
169 *80:58 *351:46 0.000347602
170 *81:69 *351:127 0.000281986
171 *92:12 *466:S0 6.08467e-05
172 *101:14 *495:A1 2.99287e-05
173 *103:30 *499:A1 0
174 *103:30 *351:46 2.21081e-05
175 *110:40 *460:S0 0.000361827
176 *111:24 *495:A1 9.83486e-05
177 *112:22 *468:S0 6.08467e-05
178 *112:22 *495:A1 2.69795e-05
179 *112:22 *351:210 0.000304446
180 *125:28 *539:S 8.6297e-06
181 *126:20 *351:542 0
182 *130:52 *351:109 9.97612e-05
183 *131:38 *351:528 2.28104e-05
184 *134:10 *351:542 2.48898e-05
185 *136:20 *465:S0 0.00012831
186 *148:28 *476:S 4.69966e-05
187 *149:22 *438:A1 6.34564e-05
188 *149:22 *499:A1 4.48152e-05
189 *155:198 *468:S0 3.21004e-06
190 *158:37 *468:S0 8.52103e-06
191 *160:37 *438:A1 0.000107413
192 *161:108 *351:127 1.85244e-05
193 *167:167 *351:12 0.000130299
194 *167:167 *351:109 0.000133152
195 *167:167 *351:127 0.000150097
196 *168:26 *351:109 0
197 *168:28 *351:127 0
198 *168:131 *351:109 4.99151e-05
199 *169:8 *438:A1 2.43959e-05
200 *181:55 *351:37 0.00025583
201 *181:55 *351:46 0.000120544
202 *182:20 *452:S0 0.00021986
203 *182:20 *499:A1 3.70027e-06
204 *182:20 *351:131 0.000217922
205 *182:47 *351:127 5.60364e-06
206 *182:47 *351:131 0.0010264
207 *182:64 *351:127 0.000117898
208 *182:90 *351:109 5.6489e-05
209 *182:133 *479:S0 3.19022e-05
210 *182:152 *479:S0 1.96456e-05
211 *182:167 *466:S0 0.000153482
212 *182:197 *351:403 0.000109678
213 *182:197 *351:420 0.000410635
214 *183:40 *457:S0 0.000104897
215 *183:40 *481:S0 5.5232e-05
216 *188:30 *449:S0 5.06177e-05
217 *198:20 *460:S0 0.00016392
218 *211:24 *451:S0 4.14849e-05
219 *212:56 *351:109 4.15236e-05
220 *217:80 *476:S 7.20593e-05
221 *220:64 *351:542 3.61779e-05
222 *229:32 *351:109 0.000172166
223 *231:38 *465:S0 0.000352805
224 *240:16 *466:S0 5.99699e-05
225 *244:24 *539:S 1.69574e-05
226 *245:20 *495:A1 2.20365e-05
227 *245:20 *351:6 5.51483e-06
228 *245:20 *351:109 9.06436e-05
229 *248:34 *465:S0 0.000246817
230 *253:58 *351:31 5.54585e-05
231 *254:22 *465:S0 9.30378e-05
232 *257:38 *457:S0 0.000159977
233 *261:34 *438:A1 3.11116e-05
234 *263:22 *351:403 8.68108e-05
235 *274:28 *402:S0 3.98972e-05
236 *277:34 *452:S0 5.44749e-05
237 *278:24 *351:127 0.000419776
238 *280:16 *351:31 4.68652e-05
239 *280:16 *351:67 8.60963e-05
240 *289:20 *539:S 5.9852e-05
241 *292:24 *351:127 0.000135886
242 *297:46 *351:31 2.82916e-05
243 *297:46 *351:109 7.61069e-05
244 *298:30 *449:S0 1.91391e-05
245 *299:60 *457:S0 0
246 *301:30 *351:109 7.40684e-06
247 *305:32 *351:127 0.000951823
248 *306:28 *351:127 6.11836e-05
249 *306:28 *351:131 1.52673e-05
250 *309:32 *351:109 0.000105229
251 *314:26 *479:S0 0.000170605
252 *318:16 *437:S 1.24448e-05
253 *319:36 *452:S0 2.71671e-05
254 *321:46 *402:S0 6.12763e-05
255 *322:48 *437:S 3.63738e-05
256 *323:32 *351:109 7.83998e-06
257 *324:22 *351:109 3.90337e-05
258 *329:28 *437:S 4.26619e-06
259 *329:32 *451:S0 0.000143175
260 *329:32 *351:420 0.000127384
261 *329:32 *351:422 0.000208695
262 *333:26 *351:403 0.000110297
263 *340:12 *351:127 7.35038e-05
264 *344:84 *458:S0 7.50872e-05
265 *346:109 *458:S0 0.000587332
266 *347:51 *351:127 0.000266766
267 *347:134 *437:S 7.71899e-05
268 *350:57 *399:SLEEP 0.000107496
269 *350:68 *399:SLEEP 4.94594e-05
270 *350:91 *351:67 1.4091e-06
271 *350:106 *495:A1 1.03594e-05
272 *350:117 *495:A1 6.3657e-05
273 *350:172 *476:S 2.77419e-05
274 *350:266 *407:S0 1.91114e-05
275 *350:266 *351:420 5.30254e-05
276 *350:266 *351:422 0.000192575
277 *350:297 *437:S 6.02095e-05
278 *350:310 *351:528 2.60879e-06
279 *350:328 *351:528 2.2816e-05
280 *350:442 *457:S0 7.41811e-05
281 *350:454 *449:S0 4.97961e-06
*RES
1 *1173:X *351:6 11.6364 
2 *351:6 *351:12 11.6232 
3 *351:12 *399:SLEEP 16.1364 
4 *351:12 *351:31 14.7244 
5 *351:31 *351:37 18.2812 
6 *351:37 *373:B 13.7491 
7 *351:37 *351:46 6.39977 
8 *351:46 *498:A1 13.7491 
9 *351:46 *458:S0 24.0047 
10 *351:31 *351:67 3.52053 
11 *351:67 *400:A 9.24915 
12 *351:67 *417:S 17.9781 
13 *351:6 *351:109 31.6646 
14 *351:109 *351:127 36.763 
15 *351:127 *351:131 3.85618 
16 *351:131 *499:A1 19.1528 
17 *351:131 *452:S0 18.6701 
18 *351:127 *438:A1 18.8683 
19 *351:109 *539:S 32.4296 
20 *458:S0 *351:210 11.6781 
21 *351:210 *495:A1 20.2616 
22 *351:210 *468:S0 23.6579 
23 *452:S0 *481:S0 13.5473 
24 *468:S0 *351:259 4.5 
25 *351:259 *402:S0 17.827 
26 *351:259 *459:S0 7.57775 
27 *481:S0 *449:S0 12.1515 
28 *481:S0 *457:S0 21.6514 
29 *402:S0 *351:328 15.4675 
30 *351:328 *450:S0 12.2515 
31 *351:328 *467:S0 6.27232 
32 *459:S0 *476:S 22.0503 
33 *457:S0 *479:S0 21.9155 
34 *450:S0 *351:403 17.6493 
35 *351:403 *397:S 9.24915 
36 *351:403 *351:420 17.9411 
37 *351:420 *351:422 3.90826 
38 *351:422 *451:S0 10.4845 
39 *351:422 *473:S 14.4725 
40 *351:420 *407:S0 5.139 
41 *479:S0 *465:S0 22.0845 
42 *451:S0 *437:S 28.1629 
43 *465:S0 *460:S0 15.815 
44 *437:S *351:528 30.9299 
45 *351:528 *351:542 21.3536 
46 *351:542 *466:S0 18.0404 
47 *351:542 *536:S 9.24915 
48 *351:528 *431:S 9.24915 
*END

*D_NET *335 0.00533358
*CONN
*P rd_en I
*I *393:B1 I *D sky130_fd_sc_hd__o21a_1
*CAP
1 rd_en 0.000171317
2 *393:B1 0
3 *335:19 0.00232924
4 *335:11 0.00250055
5 *393:A2 *335:19 6.63012e-05
6 *523:A *335:19 1.78942e-05
7 *523:B *335:19 1.70792e-05
8 *525:B *335:19 1.29759e-05
9 *3:24 *335:19 0
10 *114:26 *335:19 5.17016e-06
11 *118:57 *335:19 4.47441e-05
12 *160:16 *335:19 0.000168313
*RES
1 rd_en *335:11 11.3915 
2 *335:11 *335:19 46.2732 
3 *335:19 *393:B1 9.24915 
*END

*D_NET *336 0.0352967
*CONN
*I *423:S I *D sky130_fd_sc_hd__mux2i_1
*I *404:S I *D sky130_fd_sc_hd__mux2i_1
*I *1173:A I *D sky130_fd_sc_hd__buf_4
*I *441:S I *D sky130_fd_sc_hd__mux2i_1
*I *543:S I *D sky130_fd_sc_hd__mux2i_1
*I *546:S I *D sky130_fd_sc_hd__mux2i_1
*I *434:S I *D sky130_fd_sc_hd__mux2i_1
*I *414:S I *D sky130_fd_sc_hd__mux2i_1
*I *420:S I *D sky130_fd_sc_hd__mux2i_1
*I *608:Q O *D sky130_fd_sc_hd__dfxtp_2
*CAP
1 *423:S 0
2 *404:S 0.000268918
3 *1173:A 0.000207724
4 *441:S 4.9257e-05
5 *543:S 0.00222243
6 *546:S 8.23498e-05
7 *434:S 0.00213146
8 *414:S 5.94032e-05
9 *420:S 0.000199592
10 *608:Q 0.00124856
11 *336:161 0.000579829
12 *336:159 0.00103094
13 *336:134 0.00116462
14 *336:113 0.00303223
15 *336:58 0.0038612
16 *336:18 0.000867439
17 *336:10 0.00288221
18 *404:S *685:CLK 0
19 *404:S *367:38 6.11872e-05
20 *414:S *664:CLK 6.69175e-05
21 *420:S *357:80 0.000254445
22 *441:S *590:CLK 0.000111802
23 *543:S *383:C1 1.66626e-05
24 *543:S *1197:A 0.000387544
25 *1173:A *685:CLK 7.92757e-06
26 *1173:A *351:6 7.67019e-05
27 *1173:A *351:109 1.47978e-05
28 *336:10 *660:CLK 4.6535e-05
29 *336:18 *664:CLK 4.79321e-06
30 *336:113 *666:CLK 2.57465e-06
31 *336:134 *666:CLK 3.08362e-05
32 *336:159 *635:CLK 0.000220951
33 *336:159 *685:CLK 3.99086e-06
34 *336:159 *365:63 0.000106696
35 *336:161 *685:CLK 3.99287e-05
36 *401:B2 *434:S 1.0973e-05
37 *404:A0 *404:S 0.000158451
38 *414:A1 *414:S 1.56419e-05
39 *414:A1 *420:S 2.00098e-05
40 *423:A0 *404:S 3.59653e-06
41 *423:A0 *1173:A 0.000127534
42 *428:A1 *543:S 0
43 *431:A0 *434:S 4.47179e-05
44 *431:A1 *434:S 1.42173e-06
45 *441:A1 *336:134 3.88415e-05
46 *453:A0 *336:113 0
47 *465:A3 *336:58 5.08071e-05
48 *540:C1 *546:S 6.50727e-05
49 *643:DE *336:159 0.00014228
50 *649:DE *336:58 0.000213999
51 *659:D *336:134 0.000197226
52 *659:D *336:159 0.000135666
53 *660:D *336:10 5.48187e-06
54 *660:DE *336:10 2.29779e-05
55 *664:DE *414:S 1.84344e-05
56 *664:DE *336:18 7.40468e-05
57 *11:60 *414:S 0
58 *20:32 *434:S 8.71786e-05
59 *23:26 *336:58 9.53336e-05
60 *31:28 *336:113 0.000316854
61 *41:16 *404:S 0.000301805
62 *41:16 *1173:A 3.88438e-05
63 *49:12 *434:S 6.27718e-05
64 *55:20 *434:S 5.25972e-05
65 *60:42 *441:S 0.000125569
66 *68:38 *336:58 0.00174273
67 *69:26 *336:113 3.55859e-05
68 *69:26 *336:134 9.04963e-05
69 *71:24 *336:113 0.000683935
70 *75:30 *336:159 1.82501e-05
71 *76:16 *404:S 8.92568e-06
72 *81:12 *543:S 0.000182132
73 *81:69 *543:S 0.000321479
74 *82:174 *336:134 5.8626e-05
75 *82:176 *336:113 5.13543e-05
76 *82:193 *336:113 3.48358e-05
77 *97:16 *543:S 4.61963e-05
78 *125:28 *434:S 6.21462e-05
79 *125:28 *336:159 7.82457e-05
80 *126:20 *434:S 0.00149388
81 *131:38 *434:S 0.00126495
82 *133:8 *336:58 0.000227258
83 *136:20 *434:S 3.65052e-05
84 *139:16 *543:S 0.000327067
85 *152:20 *543:S 0.000285011
86 *155:44 *336:113 8.6588e-05
87 *155:146 *543:S 4.58745e-05
88 *161:108 *543:S 1.88499e-05
89 *162:35 *336:10 4.84024e-05
90 *162:35 *336:18 4.32735e-05
91 *162:50 *336:10 2.46244e-05
92 *163:43 *336:10 0
93 *163:43 *336:18 0
94 *163:85 *336:159 2.49093e-05
95 *163:136 *404:S 4.0605e-06
96 *163:136 *336:159 4.71822e-05
97 *166:127 *404:S 9.01966e-05
98 *169:27 *336:159 0.000576197
99 *169:46 *336:159 0.000260499
100 *170:107 *404:S 2.78622e-05
101 *170:107 *336:134 2.70549e-05
102 *170:107 *336:159 0.000129858
103 *182:152 *434:S 0.000136976
104 *214:18 *543:S 2.24518e-05
105 *219:38 *336:159 3.17436e-05
106 *220:28 *543:S 0.000428597
107 *231:38 *434:S 1.66771e-05
108 *233:34 *336:58 0.000116084
109 *235:24 *441:S 0.000254711
110 *245:20 *1173:A 5.04829e-06
111 *268:52 *336:18 3.86192e-05
112 *278:24 *543:S 0.000340853
113 *281:32 *336:10 7.09666e-06
114 *293:24 *336:58 9.88745e-05
115 *297:24 *336:159 1.02986e-05
116 *297:46 *1173:A 0.000209119
117 *299:26 *336:18 1.16711e-05
118 *299:90 *336:58 0.000550223
119 *310:36 *434:S 0.000384922
120 *312:20 *336:58 0.000128702
121 *332:32 *1173:A 3.90402e-05
122 *332:32 *336:113 0.000189358
123 *332:32 *336:159 0
*RES
1 *608:Q *336:10 23.9951 
2 *336:10 *336:18 14.5117 
3 *336:18 *420:S 23.4032 
4 *336:18 *414:S 11.3711 
5 *336:10 *336:58 30.4322 
6 *336:58 *434:S 37.7592 
7 *336:58 *546:S 11.0817 
8 *608:Q *336:113 30.9122 
9 *336:113 *543:S 31.4545 
10 *336:113 *336:134 5.77689 
11 *336:134 *441:S 16.691 
12 *336:134 *336:159 32.4156 
13 *336:159 *336:161 2.38721 
14 *336:161 *1173:A 16.3143 
15 *336:161 *404:S 27.0602 
16 *336:159 *423:S 9.24915 
*END

*D_NET *337 0.0110939
*CONN
*I *1172:A I *D sky130_fd_sc_hd__buf_4
*I *611:Q O *D sky130_fd_sc_hd__dfxtp_1
*CAP
1 *1172:A 0.00085486
2 *611:Q 0.00114236
3 *337:26 0.00197984
4 *337:8 0.00226734
5 *1172:A *574:CLK 4.61086e-05
6 *1172:A *618:CLK 0.000797107
7 *1172:A *350:10 0.000110513
8 *1172:A *361:20 0.000211478
9 *1172:A *362:28 6.9248e-05
10 *337:8 *356:33 2.37827e-05
11 *337:8 *356:63 0.000100531
12 *337:26 *362:60 5.49916e-05
13 *595:DE *1172:A 5.04829e-06
14 *611:D *337:8 6.54102e-05
15 *618:D *1172:A 0.000252007
16 *650:DE *1172:A 0.000154145
17 *656:DE *337:26 4.87439e-05
18 *6:69 *337:26 5.97745e-05
19 *80:39 *1172:A 0.000187751
20 *82:193 *337:8 8.19374e-05
21 *96:22 *1172:A 0.000191277
22 *118:20 *337:26 0.00114915
23 *161:74 *337:26 0.000146932
24 *161:85 *337:26 5.53416e-05
25 *161:108 *337:26 3.35505e-05
26 *168:26 *337:26 0.000312778
27 *168:28 *337:26 0.000222525
28 *227:18 *337:8 2.50317e-05
29 *278:24 *337:8 1.40978e-05
30 *309:32 *337:26 0.000331586
31 *317:22 *337:26 7.12632e-06
32 *324:22 *337:26 9.15281e-05
*RES
1 *611:Q *337:8 30.0014 
2 *337:8 *337:26 46.6898 
3 *337:26 *1172:A 48.1256 
*END

*D_NET *340 0.0337575
*CONN
*I *379:A I *D sky130_fd_sc_hd__xnor2_1
*I *380:A I *D sky130_fd_sc_hd__xor2_1
*I *369:A I *D sky130_fd_sc_hd__clkinv_1
*I *616:Q O *D sky130_fd_sc_hd__dfxtp_1
*CAP
1 *379:A 0.00159521
2 *380:A 0.00144254
3 *369:A 0.00138733
4 *616:Q 0.000779026
5 *340:50 0.00562278
6 *340:12 0.00516715
7 *379:A *379:B 3.76953e-05
8 *379:A *346:62 0.00171191
9 *379:A *351:127 0.00134379
10 *379:A *351:131 0.00107897
11 *380:A *437:S 5.65582e-05
12 *380:A *347:134 0.000180015
13 *380:A *350:297 0.000165455
14 *340:12 *346:32 6.34391e-05
15 *340:12 *351:127 7.35038e-05
16 *340:50 *379:B 1.0973e-05
17 *340:50 *632:CLK 5.98628e-06
18 *340:50 *347:51 0.000462976
19 *340:50 *366:147 8.36586e-06
20 *340:50 *366:157 0.000443435
21 *395:B *340:50 0.000613647
22 *402:A1 *369:A 7.10834e-05
23 *410:A1 *369:A 0.000416304
24 *428:A1 *340:50 0.000255816
25 *441:A1 *340:50 1.40632e-05
26 *450:A1 *380:A 8.31531e-05
27 *451:A1 *380:A 5.481e-05
28 *451:A3 *380:A 0.000110306
29 *468:A2 *369:A 0
30 *469:A2 *379:A 0.000160587
31 *503:B *379:A 2.02035e-05
32 *545:B1 *380:A 3.14645e-05
33 *607:D *380:A 8.14137e-05
34 *632:D *340:50 9.81631e-05
35 *2:14 *379:A 1.07881e-05
36 *2:14 *340:12 6.05225e-05
37 *13:35 *379:A 3.17436e-05
38 *13:35 *340:50 0.0006761
39 *51:36 *380:A 9.95542e-06
40 *64:10 *340:50 4.64038e-06
41 *70:30 *380:A 9.21475e-05
42 *81:69 *340:12 0.000500442
43 *94:26 *379:A 0.000178047
44 *118:20 *340:12 1.33972e-05
45 *130:52 *380:A 0.00058316
46 *130:52 *340:50 0.000927528
47 *157:131 *340:50 0.000102171
48 *158:39 *340:50 1.5714e-05
49 *161:108 *340:50 1.55159e-05
50 *178:12 *369:A 0.000185434
51 *185:26 *369:A 0.000374797
52 *201:18 *380:A 6.31223e-05
53 *208:32 *369:A 1.64126e-05
54 *208:32 *340:50 0.000110064
55 *213:20 *380:A 2.89094e-05
56 *218:56 *380:A 0.000453574
57 *219:38 *340:50 3.35483e-05
58 *220:28 *379:A 5.57319e-06
59 *220:28 *340:12 1.17811e-05
60 *234:56 *380:A 3.61767e-05
61 *234:56 *340:50 1.57481e-05
62 *265:68 *380:A 0.00011425
63 *268:30 *340:50 2.48809e-05
64 *274:28 *369:A 0.00228709
65 *275:36 *380:A 4.25232e-05
66 *279:38 *340:50 0.000598634
67 *291:26 *380:A 0.000143683
68 *293:56 *340:50 1.91391e-05
69 *294:32 *369:A 0.000481388
70 *298:30 *379:A 0.000140134
71 *301:30 *340:50 5.60804e-05
72 *305:32 *379:A 1.50596e-05
73 *305:32 *340:50 0.000681613
74 *323:32 *340:50 0.000725466
75 *327:36 *340:50 0.000110297
76 *327:58 *340:50 4.53208e-05
77 *332:32 *379:A 6.68174e-05
*RES
1 *616:Q *340:12 19.792 
2 *340:12 *340:50 45.9815 
3 *340:50 *369:A 26.6659 
4 *340:50 *380:A 44.2833 
5 *340:12 *379:A 24.6723 
*END

*D_NET *342 0.0168142
*CONN
*P wr_en I
*I *382:B1 I *D sky130_fd_sc_hd__o21a_1
*I *394:D1 I *D sky130_fd_sc_hd__o2111ai_1
*I *500:D1 I *D sky130_fd_sc_hd__o2111ai_1
*I *383:C1 I *D sky130_fd_sc_hd__o211a_1
*CAP
1 wr_en 0.00186659
2 *382:B1 0.000605402
3 *394:D1 0.000368059
4 *500:D1 0
5 *383:C1 0.000679252
6 *342:55 0.00116436
7 *342:25 0.00177769
8 *342:15 0.00315593
9 *383:C1 *500:B1 4.33655e-05
10 *383:C1 *568:CLK 3.86547e-05
11 *383:C1 *576:CLK 1.69078e-05
12 *342:25 *500:B1 0.000211492
13 *342:25 *343:18 0.000104166
14 *383:A2 *383:C1 1.03434e-05
15 *502:B1 *394:D1 1.32531e-05
16 *527:A *382:B1 0.000293883
17 *527:A *342:15 0.000152135
18 *527:A *342:55 8.20493e-05
19 *543:S *383:C1 1.66626e-05
20 *566:DE *394:D1 1.06377e-05
21 *568:DE *383:C1 5.60534e-06
22 *3:46 *394:D1 0.000650687
23 *4:57 *394:D1 0.000183323
24 *8:18 *342:15 0.00044037
25 *10:16 *394:D1 0.000203595
26 *100:6 *342:15 0.000110274
27 *104:81 *342:25 0.0002928
28 *108:26 *382:B1 3.58315e-06
29 *109:14 *342:25 0
30 *109:24 *342:25 0.000761596
31 *114:26 *394:D1 0
32 *114:28 *342:25 0.00138702
33 *114:55 *342:25 6.75696e-05
34 *116:10 *342:15 0
35 *120:39 *382:B1 0.000510942
36 *120:39 *342:55 0.000189033
37 *139:16 *383:C1 5.18421e-05
38 *140:36 *382:B1 0.000456102
39 *155:146 *383:C1 0.000338104
40 *157:48 *394:D1 1.9101e-05
41 *157:58 *382:B1 9.12416e-06
42 *160:16 *394:D1 6.29895e-05
43 *161:16 *382:B1 7.72781e-05
44 *161:16 *394:D1 0
45 *167:14 *394:D1 0.000148135
46 *167:28 *383:C1 0.000188995
47 *173:20 *383:C1 3.8181e-05
48 *175:16 *382:B1 7.13655e-06
*RES
1 wr_en *342:15 30.7991 
2 *342:15 *342:25 41.8065 
3 *342:25 *383:C1 35.8857 
4 *342:25 *500:D1 9.24915 
5 *342:15 *342:55 0.585316 
6 *342:55 *394:D1 31.5192 
7 *342:55 *382:B1 19.2292 
*END

*D_NET *343 0.0339645
*CONN
*I *507:A1 I *D sky130_fd_sc_hd__a21o_1
*I *509:A1 I *D sky130_fd_sc_hd__o21ai_0
*I *519:A I *D sky130_fd_sc_hd__lpflow_inputiso1p_1
*I *511:A I *D sky130_fd_sc_hd__nand2_1
*I *510:A1 I *D sky130_fd_sc_hd__a21oi_1
*I *373:A I *D sky130_fd_sc_hd__xor2_1
*I *512:A I *D sky130_fd_sc_hd__nand3_1
*I *524:C I *D sky130_fd_sc_hd__nand3b_1
*I *500:B1 I *D sky130_fd_sc_hd__o2111ai_1
*I *626:Q O *D sky130_fd_sc_hd__dfxtp_1
*CAP
1 *507:A1 0
2 *509:A1 0.000257648
3 *519:A 2.3034e-05
4 *511:A 0.000387618
5 *510:A1 0.00013507
6 *373:A 0.000340495
7 *512:A 6.53245e-06
8 *524:C 0.000181625
9 *500:B1 9.90941e-05
10 *626:Q 4.22272e-05
11 *343:167 0.00145404
12 *343:138 0.00233685
13 *343:92 0.000522688
14 *343:90 0.00113456
15 *343:67 0.00157422
16 *343:52 0.00111674
17 *343:29 0.00201853
18 *343:18 0.00245464
19 *343:8 0.00268933
20 *373:A *652:CLK 1.82679e-05
21 *500:B1 *500:C1 0.000423936
22 *500:B1 *568:CLK 5.04829e-06
23 *509:A1 *507:B1 8.62625e-06
24 *511:A *371:A 6.97752e-05
25 *524:C *524:A_N 4.42915e-05
26 *524:C *344:37 0.000373061
27 *343:18 *344:22 0.000253485
28 *343:29 *538:A1 0.000213429
29 *343:29 *344:22 2.24484e-05
30 *343:29 *344:37 0.00246265
31 *343:29 *350:57 0
32 *343:52 *344:49 0.000566581
33 *343:90 *371:A 0.00115665
34 *343:90 *344:84 0.000220498
35 *343:138 *1195:A 3.4123e-05
36 *343:167 *507:B1 3.28974e-05
37 *343:167 *691:CLK 2.1203e-06
38 *343:167 *1195:A 2.95884e-05
39 *343:167 *357:35 4.8878e-06
40 *383:C1 *500:B1 4.33655e-05
41 *384:B *509:A1 0
42 *494:A *373:A 0.000298399
43 *494:B *373:A 0.000254532
44 *501:B *343:67 0
45 *509:A2 *509:A1 4.94594e-05
46 *510:A2 *510:A1 6.92705e-05
47 *514:A *343:18 0.00054015
48 *519:SLEEP *343:167 2.77419e-05
49 *520:B *510:A1 0
50 *520:B *511:A 0.000100767
51 *527:A *343:167 3.31745e-05
52 *527:B *343:138 2.99929e-05
53 *527:B *343:167 6.08467e-05
54 *556:A1 *512:A 9.95922e-06
55 *556:A1 *343:52 6.60675e-05
56 *556:A1 *343:67 4.55826e-05
57 *556:A2 *343:90 1.5714e-05
58 *688:DE *343:8 6.36477e-05
59 *3:20 *343:138 1.99966e-05
60 *4:12 *343:167 6.4674e-06
61 *6:10 *343:167 0.000136163
62 *6:16 *509:A1 0.00100154
63 *6:16 *343:167 1.07248e-05
64 *10:68 *373:A 0.000107627
65 *10:68 *343:90 0.000545218
66 *11:60 *343:167 0.000138438
67 *13:62 *343:167 1.91391e-05
68 *78:26 *509:A1 0.000431415
69 *80:58 *510:A1 6.50727e-05
70 *80:93 *343:18 7.41739e-06
71 *105:10 *343:52 0.00033977
72 *105:10 *343:67 0.000154145
73 *106:8 *343:167 0.00111514
74 *109:24 *343:18 0
75 *109:24 *343:29 0
76 *111:24 *510:A1 1.07248e-05
77 *112:22 *510:A1 1.4994e-05
78 *112:22 *511:A 8.78519e-05
79 *113:8 *343:67 0.000111802
80 *114:10 *509:A1 0
81 *114:10 *343:167 0
82 *114:28 *343:18 6.52447e-05
83 *114:55 *343:18 9.2275e-05
84 *114:84 *511:A 6.27718e-05
85 *114:84 *343:90 0.00060558
86 *115:43 *343:18 5.45216e-06
87 *116:8 *509:A1 0.000239796
88 *116:50 *373:A 3.3151e-05
89 *116:50 *343:90 8.99527e-05
90 *117:12 *343:167 2.02035e-05
91 *117:58 *343:90 0.000208394
92 *118:20 *343:18 4.29884e-05
93 *118:20 *343:138 0.000112013
94 *118:28 *343:138 0.000393718
95 *120:27 *343:18 1.83935e-05
96 *147:12 *373:A 7.92757e-06
97 *149:22 *343:167 0.000130273
98 *153:22 *343:18 0.000177048
99 *161:16 *343:138 0.000247576
100 *166:42 *343:18 4.96475e-05
101 *166:42 *343:138 2.72757e-05
102 *167:28 *343:18 0.000246749
103 *167:86 *343:18 0.00151604
104 *168:10 *373:A 1.37563e-05
105 *169:8 *343:167 4.42033e-05
106 *170:14 *510:A1 1.69093e-05
107 *181:10 *511:A 9.82896e-06
108 *193:17 *524:C 4.4402e-05
109 *193:17 *343:29 0
110 *193:17 *343:52 0
111 *226:36 *343:18 0.000333868
112 *261:34 *343:138 6.00782e-06
113 *282:40 *343:167 3.77568e-05
114 *342:25 *500:B1 0.000211492
115 *342:25 *343:18 0.000104166
*RES
1 *626:Q *343:8 14.4725 
2 *343:8 *343:18 22.3187 
3 *343:18 *500:B1 18.9094 
4 *343:18 *343:29 40.4505 
5 *343:29 *524:C 19.5363 
6 *343:29 *343:52 37.8659 
7 *343:52 *512:A 9.82786 
8 *343:52 *343:67 9.00917 
9 *343:67 *373:A 23.2545 
10 *343:67 *343:90 48.6678 
11 *343:90 *343:92 4.5 
12 *343:92 *510:A1 17.135 
13 *343:92 *511:A 25.2399 
14 *343:8 *343:138 29.3292 
15 *343:138 *519:A 9.82786 
16 *343:138 *343:167 48.5962 
17 *343:167 *509:A1 29.601 
18 *343:167 *507:A1 13.7491 
*END

*D_NET *344 0.0267745
*CONN
*I *394:B1 I *D sky130_fd_sc_hd__o2111ai_1
*I *507:B1 I *D sky130_fd_sc_hd__a21o_1
*I *524:A_N I *D sky130_fd_sc_hd__nand3b_1
*I *376:A I *D sky130_fd_sc_hd__xor2_1
*I *512:B I *D sky130_fd_sc_hd__nand3_1
*I *500:C1 I *D sky130_fd_sc_hd__o2111ai_1
*I *614:Q O *D sky130_fd_sc_hd__dfxtp_1
*CAP
1 *394:B1 0.000171493
2 *507:B1 0.000718512
3 *524:A_N 5.00575e-06
4 *376:A 0.00053976
5 *512:B 0
6 *500:C1 0.000157689
7 *614:Q 0.000186659
8 *344:108 0.00129936
9 *344:84 0.00159446
10 *344:49 0.00250981
11 *344:37 0.00240268
12 *344:22 0.00249725
13 *344:16 0.00199302
14 *376:A *350:117 0.000293901
15 *376:A *350:134 4.29906e-05
16 *344:16 *675:CLK 3.41459e-05
17 *344:22 *377:A 2.16771e-05
18 *344:49 *350:57 4.69495e-06
19 *344:84 *458:S0 7.50872e-05
20 *344:84 *570:CLK 7.08723e-06
21 *344:84 *362:18 0.000260026
22 *388:A *344:37 0
23 *393:A2 *394:B1 3.66916e-05
24 *394:A1 *394:B1 5.04829e-06
25 *500:B1 *500:C1 0.000423936
26 *504:B *344:49 0
27 *509:A1 *507:B1 8.62625e-06
28 *519:SLEEP *507:B1 9.98361e-05
29 *519:SLEEP *344:108 8.60423e-05
30 *524:C *524:A_N 4.42915e-05
31 *524:C *344:37 0.000373061
32 *556:A1 *344:49 8.83916e-05
33 *556:A1 *344:84 9.80621e-06
34 *556:A2 *344:84 0.000114668
35 *557:A1 *507:B1 0.000637856
36 *557:A1 *344:108 0.00115222
37 *557:A2 *507:B1 0
38 *566:DE *507:B1 8.90668e-05
39 *616:D *344:16 1.91246e-05
40 *2:14 *344:22 7.71295e-06
41 *3:46 *394:B1 2.16355e-05
42 *4:57 *394:B1 6.51628e-05
43 *6:87 *344:84 1.40496e-05
44 *10:16 *394:B1 3.46905e-05
45 *10:47 *344:108 0.00104258
46 *10:68 *344:49 6.8455e-05
47 *10:68 *344:84 1.91246e-05
48 *24:16 *344:49 0
49 *78:26 *507:B1 4.35097e-05
50 *80:93 *344:22 0.000120235
51 *82:41 *344:49 0
52 *82:41 *344:84 0.000597616
53 *97:16 *344:22 0
54 *103:30 *507:B1 4.15313e-05
55 *104:8 *500:C1 6.50586e-05
56 *104:47 *344:84 2.02077e-05
57 *105:10 *344:49 0
58 *108:26 *344:84 0
59 *114:10 *507:B1 0
60 *114:55 *344:22 0.000481928
61 *116:50 *344:84 0.000216901
62 *118:18 *344:84 0.000107496
63 *140:36 *507:B1 5.64139e-06
64 *146:26 *344:84 9.95008e-05
65 *151:12 *394:B1 1.31795e-05
66 *151:14 *394:B1 5.90654e-06
67 *151:14 *344:16 7.86825e-06
68 *155:44 *344:22 5.74683e-06
69 *158:107 *344:22 0.00127537
70 *160:16 *394:B1 0.000219344
71 *162:12 *394:B1 1.2856e-05
72 *193:17 *524:A_N 3.23263e-05
73 *193:17 *344:37 0.000417464
74 *257:38 *507:B1 5.25599e-05
75 *311:28 *344:16 9.62967e-05
76 *343:18 *344:22 0.000253485
77 *343:29 *344:22 2.24484e-05
78 *343:29 *344:37 0.00246265
79 *343:52 *344:49 0.000566581
80 *343:90 *344:84 0.000220498
81 *343:167 *507:B1 3.28974e-05
*RES
1 *614:Q *344:16 22.0057 
2 *344:16 *344:22 11.5448 
3 *344:22 *500:C1 18.9094 
4 *344:22 *344:37 48.7256 
5 *344:37 *344:49 42.2731 
6 *344:49 *512:B 13.7491 
7 *344:49 *344:84 48.0962 
8 *344:84 *376:A 22.1164 
9 *344:37 *524:A_N 9.75552 
10 *344:16 *344:108 2.94175 
11 *344:108 *507:B1 21.323 
12 *344:108 *394:B1 19.9081 
*END

*D_NET *346 0.0345509
*CONN
*I *371:A I *D sky130_fd_sc_hd__clkinv_1
*I *377:A I *D sky130_fd_sc_hd__xnor2_1
*I *517:B I *D sky130_fd_sc_hd__nand3_1
*I *513:B I *D sky130_fd_sc_hd__nand3_1
*I *622:Q O *D sky130_fd_sc_hd__dfxtp_1
*CAP
1 *371:A 0.00133189
2 *377:A 0.000941086
3 *517:B 0
4 *513:B 0.000308685
5 *622:Q 0.000280515
6 *346:109 0.00251627
7 *346:62 0.00272705
8 *346:32 0.00497508
9 *346:14 0.00308053
10 *346:14 *350:57 0.000125342
11 *346:32 *350:57 0.000434891
12 *346:62 *647:CLK 5.05252e-05
13 *346:109 *458:S0 0.000587332
14 *379:A *346:62 0.00171191
15 *384:B *513:B 0
16 *395:B *371:A 4.72168e-05
17 *469:A0 *513:B 2.42661e-05
18 *469:A0 *346:62 5.04734e-05
19 *503:B *513:B 0
20 *503:B *346:62 0.00050584
21 *511:A *371:A 6.97752e-05
22 *520:B *371:A 0.000142393
23 *530:B *346:32 0.000153427
24 *557:A1 *346:109 0.000593778
25 *2:14 *377:A 0.00158574
26 *6:69 *346:14 5.04829e-06
27 *6:87 *346:109 0.00019035
28 *13:62 *346:62 0.000104754
29 *80:8 *377:A 1.05601e-05
30 *80:39 *346:32 6.58567e-05
31 *80:58 *346:109 8.44087e-05
32 *80:93 *346:62 0.000767406
33 *81:69 *377:A 0
34 *81:69 *346:32 0.000564082
35 *81:249 *346:14 3.93647e-06
36 *81:249 *346:32 1.07576e-06
37 *93:30 *346:62 3.46501e-05
38 *97:16 *377:A 5.44643e-05
39 *103:30 *346:109 0.000169003
40 *108:26 *346:109 0.000133599
41 *111:24 *346:109 0
42 *112:22 *371:A 6.12686e-06
43 *114:84 *371:A 4.10549e-05
44 *118:20 *346:32 0
45 *139:16 *377:A 7.86825e-06
46 *140:36 *346:32 0.00219514
47 *149:22 *513:B 0
48 *149:22 *346:62 0.000155751
49 *153:22 *346:32 0.00215933
50 *153:22 *346:109 7.4615e-06
51 *155:157 *346:14 0.000153327
52 *155:198 *346:14 3.77568e-05
53 *158:101 *346:62 0.000131177
54 *158:107 *346:62 0.000113987
55 *164:30 *346:32 0.000142233
56 *164:30 *346:62 0.000269084
57 *166:38 *346:32 8.67639e-05
58 *166:42 *346:32 1.66626e-05
59 *166:42 *346:62 0.000263537
60 *166:59 *346:62 0.000304871
61 *179:26 *346:109 0.000538345
62 *180:18 *513:B 9.35753e-06
63 *181:10 *371:A 3.50311e-06
64 *181:10 *346:109 0
65 *181:55 *346:14 3.70027e-06
66 *181:55 *346:109 0.000217993
67 *241:16 *346:32 6.02259e-05
68 *241:48 *346:62 4.35662e-05
69 *253:20 *346:14 0.00010905
70 *282:40 *346:62 7.93531e-05
71 *298:30 *346:62 0.00171866
72 *340:12 *346:32 6.34391e-05
73 *343:90 *371:A 0.00115665
74 *344:22 *377:A 2.16771e-05
*RES
1 *622:Q *346:14 21.7831 
2 *346:14 *346:32 15.944 
3 *346:32 *346:62 43.6703 
4 *346:62 *513:B 19.3673 
5 *346:62 *517:B 13.7491 
6 *346:32 *377:A 23.5159 
7 *346:14 *346:109 27.51 
8 *346:109 *371:A 32.1567 
*END

*D_NET *347 0.0351393
*CONN
*I *380:B I *D sky130_fd_sc_hd__xor2_1
*I *379:B I *D sky130_fd_sc_hd__xnor2_1
*I *553:A I *D sky130_fd_sc_hd__xor2_1
*I *612:Q O *D sky130_fd_sc_hd__dfxtp_1
*CAP
1 *380:B 0
2 *379:B 0.00210215
3 *553:A 0.00138183
4 *612:Q 1.22246e-05
5 *347:134 0.00337452
6 *347:51 0.00676124
7 *347:10 0.00267864
8 *379:B *691:CLK 1.9101e-05
9 *379:B *354:40 0.000180619
10 *379:B *354:49 7.09119e-05
11 *553:A *701:CLK 3.34011e-05
12 *347:10 *362:62 4.51062e-05
13 *347:51 *351:127 0.000266766
14 *347:134 *437:S 7.71899e-05
15 *347:134 *350:297 9.11864e-06
16 *347:134 *365:35 6.44224e-05
17 *347:134 *365:37 1.03403e-05
18 *378:D_N *379:B 0.000511183
19 *379:A *379:B 3.76953e-05
20 *380:A *347:134 0.000180015
21 *395:B *379:B 0.000739845
22 *431:A0 *347:134 0.00033205
23 *434:A1 *347:134 0.00199976
24 *441:A1 *379:B 0.000214047
25 *503:B *379:B 8.43167e-05
26 *545:B1 *347:134 0.000114518
27 *636:DE *347:51 5.9036e-05
28 *646:DE *553:A 1.5714e-05
29 *658:DE *347:134 0.00012322
30 *701:DE *553:A 1.65704e-05
31 *6:69 *347:10 4.51062e-05
32 *11:38 *347:51 5.11466e-05
33 *13:62 *379:B 9.29815e-06
34 *56:28 *379:B 0.000772885
35 *60:42 *379:B 6.78308e-05
36 *60:42 *347:51 0.000134132
37 *60:42 *347:134 0.000663616
38 *75:30 *347:134 0.00102727
39 *80:93 *379:B 0.000249108
40 *82:291 *347:134 6.11749e-05
41 *93:30 *379:B 0.00016416
42 *115:35 *553:A 0
43 *139:16 *553:A 6.08467e-05
44 *146:26 *347:51 4.39449e-06
45 *157:30 *553:A 0.000681599
46 *157:131 *553:A 0.000249431
47 *157:131 *347:51 0.000808036
48 *157:131 *347:134 0.0011923
49 *163:58 *379:B 0.000133225
50 *163:58 *347:134 1.91391e-05
51 *163:85 *347:134 4.59547e-05
52 *167:167 *347:51 2.25775e-05
53 *181:55 *553:A 0.000453882
54 *182:64 *347:51 0.000335089
55 *182:90 *347:51 0.000118194
56 *219:38 *347:51 0.000537141
57 *219:38 *347:134 0.000329072
58 *229:32 *347:134 1.05272e-06
59 *241:48 *379:B 7.24513e-05
60 *244:24 *347:51 5.48634e-05
61 *258:24 *347:134 4.02528e-05
62 *259:28 *347:134 0.000111938
63 *267:28 *347:51 6.97036e-06
64 *270:24 *347:51 2.73832e-05
65 *279:38 *379:B 0.00101671
66 *292:24 *347:51 0.000174832
67 *296:28 *347:134 0.00119449
68 *297:24 *347:134 3.73617e-05
69 *298:30 *379:B 0.00184742
70 *313:52 *347:134 3.57289e-05
71 *317:22 *347:51 0
72 *318:16 *347:134 0
73 *322:48 *347:134 3.63738e-05
74 *324:22 *553:A 4.4204e-05
75 *328:32 *553:A 3.20707e-05
76 *328:32 *347:51 6.68644e-06
77 *329:28 *347:134 0.000172408
78 *340:50 *379:B 1.0973e-05
79 *340:50 *347:51 0.000462976
*RES
1 *612:Q *347:10 17.9118 
2 *347:10 *553:A 33.3026 
3 *347:10 *347:51 35.2152 
4 *347:51 *379:B 37.2472 
5 *347:51 *347:134 46.5563 
6 *347:134 *380:B 9.24915 
*END
